&CONTROL
  calculation = 'scf'
  prefix = '4amp15_pbe0'
  outdir = './outdir'
  pseudo_dir = '/home/yongkeat1017/miniconda3/pp'
/
&SYSTEM
  ibrav = 0
  nat = 196
  ntyp = 4
  occupations = 'fixed'
  nbnd = 286
  input_dft = 'pbe0', nqx1 = 1, nqx2 = 1, nqx3=1,
  x_gamma_extrapolation = .true.
  exxdiv_treatment = 'gygi-baldereschi'
  ecutwfc = 100
  ecutrho = 400
  ecutfock = 200
/
&ELECTRONS
  conv_thr = 1.0E-7
  adaptive_thr = .TRUE.
  mixing_mode = 'local-TF'
  mixing_beta = 0.7
  mixing_ndim = 8
  diagonalization = 'david'
  electron_maxstep = 128
/

ATOMIC_SPECIES
  O   16.00  O_ONCV_PBE-1.2.upf
  N   14.00  N_ONCV_PBE-1.2.upf
  C   12.00  C_ONCV_PBE-1.2.upf
  H    1.00  H_ONCV_PBE-1.2.upf

CELL_PARAMETERS {angstrom}
       16.29700000     0.00000000     0.00000000
        0.00000000     5.63040000     0.00000000
      -15.27928516     0.00000000    19.56081507

ATOMIC_POSITIONS {angstrom}
O            -4.5718150334        3.8437084156        9.4070392390
O             0.0450912217        4.3157915035       10.8611203660
O             3.8121559509        5.3206741988       12.0130357773
N            -7.2998715430        2.7321177412       12.8044753465
C            -1.7502584340        1.4583517771       12.9824703558
H            -2.3334937143        2.3183819042       13.6258000847
C            -0.9732937724        0.6983810285       13.5357105641
H            -0.7752470220        0.8293529016       14.7442160939
C            -0.3808874315        5.4443249723       12.9322594567
H             0.3999867812        4.7000207757       13.5038543546
C            -0.5135775861        5.2093174099       11.6439211850
C            -1.3824470824        0.4541129415       11.1569287408
H            -1.5740106115        0.3114849805        9.9559133872
C            -2.0507931990        1.4309491810       11.6999970043
C            -2.8808402109        2.2774864532       11.1076733047
H            -3.0879837866        2.0325885194        9.9255603639
C            -3.5763096999        3.3190831940       11.3354415863
H            -3.4016977258        3.6111847515       12.4920322307
C            -4.4244789531        4.1124261566       10.6403921978
C            -5.1531569583        5.2064880848       11.2042662529
C            -5.9747226233        0.3550589781       10.5428331352
H            -6.0667728520        0.0676754697        9.3492774011
C            -6.6274625233        1.2740218029       10.9828395786
H            -7.3529063593        1.9351915887       10.2362006640
C            -6.6452113388        1.6964947364       12.2341868851
C            -5.7945014205        0.9262130177       12.8937854028
H            -5.6801531790        1.2423818577       14.0723390202
C            -5.1538813198        5.6285132334       12.4439684015
H            -4.4204316671        4.9919675315       13.1955244797
C            -8.4494930038        3.0393099385       12.4889262540
H            -8.9541460302        2.2515186362       11.6533174231
C            -9.2846734929        4.0312223621       12.8440404610
C             5.8203984831        4.3009582244       12.3853946081
H             5.4147850668        3.4875545886       11.5555299836
C             4.9855507269        5.2626222544       12.6307350721
C             5.5049413295        0.4225156956       13.5378315035
H             4.8089039514        1.3658820612       13.8769418898
C            -9.6740233708        0.2496428470       14.0415452708
H            -9.2823957814        1.0501373050       14.8946958340
C            -8.9604098828        4.9575824732       13.7267461319
H            -7.8506943376        4.8174849548       14.2226748788
C             0.8828360483        3.4898389442       11.4310775010
H             1.3333809269        2.7500761853       10.6968498316
H             0.4390430834        2.8314035440       12.2360796875
H             1.7782949561        3.9655738346       11.9165527495
C             3.1496504018        0.8064662421       12.1639107902
H             2.2141730843        0.8512602072       11.5273336991
H             3.7178119843        1.7411140152       11.8729531100
H             2.7821668456        1.0116786672       13.2055769899
O            13.2291724534        1.0285084156        0.3733682910
O            -6.6670189517        1.5005915035       18.4801022340
O           -10.4340836909        2.5054741988       17.3281868227
N             0.6779438030        5.5473177412       16.5367472535
C            -4.8716693060        4.2735517771       16.3587522442
H            -4.2884340257        5.1335819042       15.7154225153
C            -5.6486339576        3.5135810285       15.8055120359
H            -5.8466807180        3.6445529016       14.5970065061
C            -6.2410403085        2.6291249723       16.4089631333
H            -7.0219145212        1.8848207757       15.8373682454
C            -6.1083501539        2.3941174099       17.6973014150
C            -5.2394806476        3.2693129415       18.1842938492
H            -5.0479171285        3.1266849805       19.3853092128
C            -4.5711345410        4.2461491810       17.6412255957
C            -3.7410875191        5.0926864532       18.2335492953
H            -3.5339439434        4.8477885194       19.4156622361
C            -3.0456180401        0.5038831940       18.0057810137
H            -3.2202300142        0.7959847515       16.8491903693
C            -2.1974487869        1.2972261566       18.7008304022
C            -1.4687707817        2.3912880848       18.1369563471
C            -0.6472051167        3.1702589781       18.7983894648
H            14.7241302720        2.8828754697        0.4311301289
C             0.0055347833        4.0892218029       18.3583830214
H             0.7309786293        4.7503915887       19.1050219360
C             0.0232835988        4.5116947364       17.1070357149
C            -0.8274263195        3.7414130177       16.4474371972
H            -0.9417745510        4.0575818577       15.2688835698
C            -1.4680464202        2.8133132334       16.8972541985
H            -2.2014960729        2.1767675315       16.1456981203
C             1.8275652638        0.2241099385       16.8522963460
H             2.3322182902        5.0667186362       17.6879051669
C             2.6627457529        1.2160223621       16.4971821390
C           -12.4423262231        1.4857582244       16.9558279919
H           -12.0367128068        0.6723545886       17.7856926064
C           -11.6074784669        2.4474222544       16.7104875279
C           -12.1268690695        3.2377156956       15.8033910965
H           -11.4308316814        4.1810820612       15.4642807102
C             3.0520956308        3.0648428470       15.2996773192
H             2.6604680414        3.8653373050       14.4465267660
C             2.3384821428        2.1423824732       15.6144764681
H             1.2287665976        2.0022849548       15.1185477112
C            -7.5047637783        0.6746389442       17.9101450990
H            -7.9553086669       -0.0651238147       18.6443727684
H            -7.0609708234        0.0162035440       17.1051429125
H            -8.4002226861        1.1503738346       17.4246698505
C            -9.7715781418        3.6216662421       17.1773118098
H            -8.8361008243        3.6664602072       17.8138889009
H           -10.3397397243        4.5563140152       17.4682694900
H            -9.4040945856        3.8268786672       16.1356456001
O             5.5895298734        1.7866915844       10.1537758210
O             0.9726236183        1.3146084965        8.6996946940
O            -2.7944411109        0.3097258012        7.5477792927
N             8.3175863830        2.8982822588        6.7563397135
C             2.7679732740        4.1720482229        6.5783447142
H             3.3512085543        3.3120180958        5.9350149853
C             1.9910086124        4.9320189715        6.0251044959
H             1.7929618620        4.8010470984        4.8165989761
C             1.3986022715        0.1860750277        6.6285556033
H             0.6177280588        0.9303792243        6.0569607054
C             1.5312924261        0.4210825901        7.9168938850
C             2.4001619224        5.1762870585        8.4038863192
H             2.5917254515        5.3189150195        9.6049016828
C             3.0685080390        4.1994508190        7.8608180657
C             3.8985550509        3.3529135468        8.4531417653
H             4.1056986366        3.5978114806        9.6352547061
C             4.5940245399        2.3113168060        8.2253734837
H             4.4194125658        2.0192152485        7.0687828293
C             5.4421937931        1.5179738434        8.9204228722
C             6.1708717983        0.4239119152        8.3565488171
C             6.9924374633        5.2753410219        9.0179819348
H             7.0844876920        5.5627245303       10.2115376689
C             7.6451773633        4.3563781971        8.5779754914
H             8.3706211993        3.6952084113        9.3246144060
C             7.6629261788        3.9339052636        7.3266281849
C             6.8122162605        4.7041869823        6.6670296672
H             6.6978680290        4.3880181423        5.4884760398
C             6.1715961598        0.0018867666        7.1168466585
H             5.4381465071        0.6384324685        6.3652905903
C             9.4672078438        2.5910900615        7.0718888060
H             9.9718608702        3.3788813638        7.9074976369
C            10.3023883329        1.5991776379        6.7167746090
C            -4.8026836431        1.3294417756        7.1754204619
H            -4.3970702268        2.1428454114        8.0052850764
C            -3.9678358869        0.3677777456        6.9300799879
C            -4.4872264895        5.2078843044        6.0229835565
H            -3.7911891014        4.2645179388        5.6838731802
C            10.6917382108        5.3807571530        5.5192697892
H            10.3001106214        4.5802626950        4.6661192360
C             9.9781247228        0.6728175268        5.8340689281
H             8.8684091776        0.8129150452        5.3381401812
C             0.1348788017        2.1405610558        8.1297375690
H            -0.3156660869        2.8803238147        8.8639652384
H             0.5786717566        2.7989964560        7.3247353825
H            -0.7605801061        1.6648261654        7.6442623205
C            -2.1319355618        4.8239337579        7.3969042798
H            -1.1964582443        4.7791397928        8.0334813609
H            -2.7000971443        3.8892859848        7.6878619600
H            -1.7644520056        4.6187213328        6.3552380701
O           -12.2114576134        4.6018915844       19.1874467690
O             7.6847338017        4.1298084965        1.0807128360
O            11.4517985309        3.1249258012        2.2326282373
N             0.3397710370        0.0830822588        3.0240678165
C             5.8893841460        1.3568482229        3.2020628258
H             5.3061488657        0.4968180958        3.8453925547
C             6.6663488076        2.1168189715        3.7553030341
H             6.8643955580        1.9858470984        4.9638085639
C             7.2587551485        3.0012750277        3.1518519267
H             8.0396293612        3.7455792243        3.7234468246
C             7.1260649939        3.2362825901        1.8635136550
C             6.2571954976        2.3610870585        1.3765212108
H             6.0656319685        2.5037150195        0.1755058472
C             5.5888493810        1.3842508190        1.9195894643
C             4.7588023691        0.5377135468        1.3272657747
H             4.5516587834        0.7826114806        0.1451528339
C             4.0633328801        5.1265168060        1.5550340563
H             4.2379448542        4.8344152485        2.7116247007
C             3.2151636269        4.3331738434        0.8599846578
C             2.4864856217        3.2391119152        1.4238587129
C             1.6649199567        2.4601410219        0.7624255952
H           -13.7064154320        2.7475245303       19.1296849311
C             1.0121800567        1.5411781971        1.2024320486
H             0.2867362207        0.8800084113        0.4557931240
C             0.9944312412        1.1187052636        2.4537793451
C             1.8451411595        1.8889869823        3.1133778728
H             1.9594894010        1.5728181423        4.2919314902
C             2.4857612602        2.8170867666        2.6635608715
H             3.2192109129        3.4536324685        3.4151169397
C            -0.8098504238        5.4062900615        2.7085187240
H            -1.3145034502        0.5636813638        1.8729098931
C            -1.6450309129        4.4143776379        3.0636329210
C            13.4600410631        4.1446417756        2.6049870781
H            13.0544276468        4.9580454114        1.7751224536
C            12.6251933069        3.1829777456        2.8503275421
C            13.1445839095        2.3926843044        3.7574239735
H            12.4485465314        1.4493179388        4.0965343598
C            -2.0343807908        2.5655571530        4.2611377408
H            -1.6427532014        1.7650626950        5.1142882940
C            -1.3207673028        3.4880175268        3.9463386019
H            -0.2110517576        3.6281150452        4.4422673488
C             8.5224786183        4.9557610558        1.6506699610
H             8.9730235069        5.6955238147        0.9164423016
H             8.0786856634        5.6141964560        2.4556721475
H             9.4179375261        4.4800261654        2.1361452195
C            10.7892929818        2.0087337579        2.3835032502
H             9.8538156643        1.9639397928        1.7469261691
H            11.3574545643        1.0740859848        2.0925455800
H            10.4218094256        1.8035213328        3.4251694599

K_POINTS gamma
