&CONTROL
  calculation = 'scf'
  prefix = '4amp'
  outdir = './outdir'
  pseudo_dir = '/home/joyeechan1127/miniconda3/pp'
/
&SYSTEM
  ibrav = 0
  nat = 196
  ntyp = 4
  occupations = 'fixed'
  nbnd = 295
  input_dft = 'pbe'
  ecutwfc = 80
  ecutrho = 800
/
&ELECTRONS
  conv_thr = 1.0E-10
  mixing_mode = 'local-TF'
  mixing_beta = 0.7
  mixing_ndim = 8
  diagonalization = 'david'
  electron_maxstep = 128
/

ATOMIC_SPECIES
  O   16.00  O.pbe-n-rrkjus_psl.1.0.0.UPF
  N   14.00  N.pbe-n-rrkjus_psl.1.0.0.UPF
  C   12.00  C.pbe-n-rrkjus_psl.1.0.0.UPF
  H    1.00  H.pbe-rrkjus_psl.1.0.0.UPF

CELL_PARAMETERS {angstrom}
       16.29700000     0.00000000     0.00000000
        0.00000000     5.63040000     0.00000000
      -15.27928516     0.00000000    19.56081507

ATOMIC_POSITIONS {angstrom}
O            -4.5755866689        3.8365296087        9.3738674296
O             0.0434849923        4.3132223254       10.8473859110
O             3.8066279176        5.3111649478       12.0050997493
N            -7.2827893327        2.7322073059       12.8122719136
C            -1.7529970333        1.4612673271       12.9837586712
H            -2.3361510730        2.3226279667       13.6288345472
C            -0.9717000788        0.6977679506       13.5404754383
H            -0.7743045206        0.8299482773       14.7499250462
C            -0.3781381324        5.4424898878       12.9360023197
H             0.4035425239        4.6964895995       13.5067792488
C            -0.5161765182        5.2138785219       11.6453027441
C            -1.3809982084        0.4521166086       11.1532338651
H            -1.5752489197        0.3108041471        9.9502412086
C            -2.0554363503        1.4357260939       11.6978821552
C            -2.8750545412        2.2702876973       11.1075709063
H            -3.0888772890        2.0312147039        9.9197787450
C            -3.5817672209        3.3255911711       11.3365194679
H            -3.4007346962        3.6127483162       12.4979209527
C            -4.4211353738        4.1182671866       10.6667704309
C            -5.1496689026        5.2027499099       11.2028797805
C            -5.9757308735        0.3547230839       10.5389802118
H            -6.0672874716        0.0663271217        9.3435349662
C            -6.6297174433        1.2759751708       10.9792524883
H            -7.3563276485        1.9384401269       10.2326062110
C            -6.6467401805        1.6988542259       12.2367587881
C            -5.7936247996        0.9268604142       12.8979842557
H            -5.6795040352        1.2439113364       14.0780368774
C            -5.1517780499        5.6266323039       12.4473968073
H            -4.4169557217        4.9888082717       13.1991102595
C            -8.4668133136        3.0453411080       12.4858104716
H            -8.9565463312        2.2476568640       11.6498564861
C            -9.2804207463        4.0264505010       12.8415052628
C             5.8186392183        4.2984782260       12.3822811005
H             5.4128618273        3.4836667952       11.5517916077
C             4.9883567713        5.2620227679       12.6323407334
C             5.5033725304        0.4261628296       13.5406410273
H             4.8058700568        1.3703798367       13.8782601934
C            -9.6733824219        0.2531198874       14.0447584275
H            -9.2804174803        1.0539101862       14.8987576161
C            -8.9562342393        4.9569476026       13.7289423390
H            -7.8453900104        4.8169005084       14.2251507314
C             0.8874394134        3.4846750126       11.4324145201
H             1.3358606155        2.7463038162       10.6933689090
H             0.4367851975        2.8283874413       12.2403336426
H             1.7827672373        3.9680014743       11.9192085159
C             3.1448941891        0.8117165350       12.1637465448
H             2.2093836707        0.8516921090       11.5241855218
H             3.7207984577        1.7457360023       11.8716224046
H             2.7802952950        1.0127687168       13.2111158118
O            13.2329440889        1.0213296087        0.4065401004
O            -6.6654127223        1.4980223254       18.4938366890
O           -10.4285556576        2.4959649478       17.3361228507
N             0.6608615927        5.5474073059       16.5289506864
C            -4.8689307067        4.2764673271       16.3574639288
H            -4.2857766670        5.1378279667       15.7123880528
C            -5.6502276512        3.5129679506       15.8007471617
H            -5.8476232194        3.6451482773       14.5912975538
C            -6.2437896076        2.6272898878       16.4052202703
H            -7.0254702639        1.8812895995       15.8344433512
C            -6.1057512218        2.3986785219       17.6959198559
C            -5.2409295216        3.2673166086       18.1879887249
H            -5.0466788203        3.1260041471       19.3909813914
C            -4.5664913897        4.2509260939       17.6433404448
C            -3.7468731888        5.0854876973       18.2336516937
H            -3.5330504410        4.8464147039       19.4214438550
C            -3.0401605191        0.5103911711       18.0047031321
H            -3.2211930438        0.7975483162       16.8433016473
C            -2.2007923662        1.3030671866       18.6744521691
C            -1.4722588374        2.3875499099       18.1383428195
C            -0.6461968665        3.1699230839       18.8022423882
H            14.7246448916        2.8815271217        0.4368725638
C             0.0077897033        4.0911751708       18.3619701117
H             0.7343999185        4.7536401269       19.1086163890
C             0.0248124405        4.5140542259       17.1044638119
C            -0.8283029404        3.7420604142       16.4432383443
H            -0.9424236948        4.0591113364       15.2631857126
C            -1.4701496901        2.8114323039       16.8938257927
H            -2.2049720183        2.1736082717       16.1421123405
C             1.8448855736        0.2301411080       16.8554121284
H             2.3346185912        5.0628568640       17.6913661039
C             2.6584930063        1.2112505010       16.4997173372
C           -12.4405669583        1.4832782260       16.9589414995
H           -12.0347895673        0.6684667952       17.7894309823
C           -11.6102845113        2.4468227679       16.7088818666
C           -12.1253002704        3.2413628296       15.8005815727
H           -11.4277977868        4.1855798367       15.4629624066
C             3.0514546819        3.0683198874       15.2964641625
H             2.6584897403        3.8691101862       14.4424649839
C             2.3343064993        2.1417476026       15.6122802610
H             1.2234622704        2.0017005084       15.1160718586
C            -7.5093671434        0.6694750126       17.9088080799
H            -7.9577883555       -0.0688961838       18.6478536910
H            -7.0587129375        0.0131874413       17.1008889574
H            -8.4046949673        1.1528014743       17.4220140841
C            -9.7668219291        3.6269165350       17.1774760552
H            -8.8313114107        3.6668921090       17.8170370782
H           -10.3427261977        4.5609360023       17.4696001954
H            -9.4022230350        3.8279687168       16.1301067782
O             5.5933015089        1.7938703913       10.1869476304
O             0.9742298477        1.3171776746        8.7134291490
O            -2.7889130776        0.3192350522        7.5557153207
N             8.3005041727        2.8981926941        6.7485431464
C             2.7707118733        4.1691326729        6.5770563988
H             3.3538659130        3.3077720333        5.9319805228
C             1.9894149188        4.9326320494        6.0203396217
H             1.7920193606        4.8004517227        4.8108900238
C             1.3958529724        0.1879101122        6.6248127403
H             0.6141723161        0.9339104005        6.0540358112
C             1.5338913582        0.4165214781        7.9155123259
C             2.3987130484        5.1782833914        8.4075811949
H             2.5929637597        5.3195958529        9.6105738614
C             3.0731511903        4.1946739061        7.8629329148
C             3.8927693812        3.3601123027        8.4532441637
H             4.1065921390        3.5991852961        9.6410363250
C             4.5994820609        2.3048088289        8.2242956021
H             4.4184495362        2.0176516838        7.0628941073
C             5.4388502138        1.5121328134        8.8940446391
C             6.1673837426        0.4276500901        8.3579352895
C             6.9934457135        5.2756769161        9.0218348582
H             7.0850023116        5.5640728783       10.2172801038
C             7.6474322833        4.3544248292        8.5815625817
H             8.3740424885        3.6919598731        9.3282088590
C             7.6644550205        3.9315457741        7.3240562819
C             6.8113396396        4.7035395858        6.6628308143
H             6.6972188852        4.3864886636        5.4827781826
C             6.1694928899        0.0037676961        7.1134182527
H             5.4346705617        0.6415917283        6.3617048105
C             9.4845281536        2.5850588920        7.0750045884
H             9.9742611712        3.3827431360        7.9109585739
C            10.2981355863        1.6039494990        6.7193098072
C            -4.8009243783        1.3319217740        7.1785339695
H            -4.3951469873        2.1467332048        8.0090234523
C            -3.9706419313        0.3683772321        6.9284743266
C            -4.4856576904        5.2042371704        6.0201740327
H            -3.7881552068        4.2600201633        5.6825548766
C            10.6910972619        5.3772801126        5.5160566325
H            10.2981323203        4.5764898138        4.6620574539
C             9.9739490793        0.6734523974        5.8318727210
H             8.8631048504        0.8134994916        5.3356643286
C             0.1302754366        2.1457249874        8.1284005499
H            -0.3181457755        2.8840961838        8.8674461610
H             0.5809296425        2.8020125587        7.3204814274
H            -0.7650523873        1.6623985257        7.6416065541
C            -2.1271793491        4.8186834650        7.3970685252
H            -1.1916688307        4.7787078910        8.0366295382
H            -2.7030836177        3.8846639977        7.6891926654
H            -1.7625804550        4.6176312832        6.3496992482
O           -12.2152292489        4.6090703913       19.1542749596
O             7.6831275723        4.1323776746        1.0669783810
O            11.4462704976        3.1344350522        2.2246922093
N             0.3568532473        0.0829926941        3.0318643836
C             5.8866455467        1.3539326729        3.2033511412
H             5.3034915070        0.4925720333        3.8484270172
C             6.6679425012        2.1174320494        3.7600679083
H             6.8653380594        1.9852517227        4.9695175162
C             7.2615044476        3.0031101122        3.1555947897
H             8.0431851039        3.7491104005        3.7263717188
C             7.1234660618        3.2317214781        1.8648952141
C             6.2586443716        2.3630833914        1.3728263351
H             6.0643936603        2.5043958529        0.1698336686
C             5.5842062297        1.3794739061        1.9174746152
C             4.7645880388        0.5449123027        1.3271633763
H             4.5507652810        0.7839852961        0.1393712150
C             4.0578753591        5.1200088289        1.5561119379
H             4.2389078838        4.8328516838        2.7175134227
C             3.2185072062        4.3273328134        0.8863628909
C             2.4899736774        3.2428500901        1.4224722405
C             1.6639117065        2.4604769161        0.7585726718
H           -13.7069300516        2.7488728783       19.1239424962
C             1.0099251367        1.5392248292        1.1988449583
H             0.2833149315        0.8767598731        0.4521986710
C             0.9929023995        1.1163457741        2.4563512481
C             1.8460177804        1.8883395858        3.1175767257
H             1.9601385448        1.5712886636        4.2976293474
C             2.4878645301        2.8189676961        2.6669892773
H             3.2226868583        3.4567917283        3.4187027195
C            -0.8271707336        5.4002588920        2.7054029416
H            -1.3169037512        0.5675431360        1.8694489561
C            -1.6407781663        4.4191494990        3.0610977228
C            13.4582817983        4.1471217740        2.6018735705
H            13.0525044073        4.9619332048        1.7713840777
C            12.6279993513        3.1835772321        2.8519332034
C            13.1430151104        2.3890371704        3.7602334973
H            12.4455126368        1.4448201633        4.0978526634
C            -2.0337398419        2.5620801126        4.2643508975
H            -1.6407749003        1.7612898138        5.1183500761
C            -1.3165916593        3.4886523974        3.9485348090
H            -0.2057474304        3.6286994916        4.4447432014
C             8.5270819834        4.9609249874        1.6520069801
H             8.9755031955        5.6992961838        0.9129613790
H             8.0764277775        5.6172125587        2.4599261026
H             9.4224098073        4.4775985257        2.1388009859
C            10.7845367691        2.0034834650        2.3833390048
H             9.8490262507        1.9635078910        1.7437779918
H            11.3604410377        1.0694639977        2.0912148746
H            10.4199378750        1.8024312832        3.4307082818

K_POINTS gamma
