&CONTROL
  calculation = 'scf'
  prefix = '4amp'
  outdir = './outdir'
  pseudo_dir = '/opt/qe/bin/pp/'
/
&SYSTEM
  ibrav = 0
  nat = 196
  ntyp = 4
  occupations = 'fixed'
  nbnd = 295
  input_dft = 'pbe'
  ecutwfc = 80
  ecutrho = 800
/
&ELECTRONS
  conv_thr = 1.0E-10
  mixing_mode = 'local-TF'
  mixing_beta = 0.7
  mixing_ndim = 8
  diagonalization = 'david'
  electron_maxstep = 128
/

ATOMIC_SPECIES
  O   16.00  O.pbe-n-rrkjus_psl.1.0.0.UPF
  N   14.00  N.pbe-n-rrkjus_psl.1.0.0.UPF
  C   12.00  C.pbe-n-rrkjus_psl.1.0.0.UPF
  H    1.00  H.pbe-rrkjus_psl.1.0.0.UPF

CELL_PARAMETERS {angstrom}
       16.29700000     0.00000000     0.00000000
        0.00000000     5.63040000     0.00000000
      -15.27928516     0.00000000    19.56081507

ATOMIC_POSITIONS {angstrom}
O            -4.5755982966        3.8365074094        9.3737920738
O             0.0435029924        4.3132194968       10.8474450497
O             3.8066478254        5.3112186590       12.0051333698
N            -7.2826736428        2.7321778172       12.8123018913
C            -1.7529797819        1.4612320195       12.9837230071
H            -2.3361754082        2.3226641350       13.6288617828
C            -0.9716987586        0.6977581315       13.5404245186
H            -0.7742977665        0.8299546001       14.7499747255
C            -0.3781669851        5.4425186511       12.9359833595
H             0.4035755673        4.6964585033       13.5068029218
C            -0.5161562972        5.2138528596       11.6452663906
C            -1.3809853525        0.4521104698       11.1532822562
H            -1.5752588255        0.3107993432        9.9501889472
C            -2.0554414558        1.4357419511       11.6978842460
C            -2.8750109111        2.2702433333       11.1076058563
H            -3.0888848019        2.0311999106        9.9197239319
C            -3.5818022303        3.3256224888       11.3364849932
H            -3.4007283371        3.6127642662       12.4979720465
C            -4.4211223772        4.1182882465       10.6668558356
C            -5.1496689557        5.2027439620       11.2028787203
C            -5.9757248232        0.3547327919       10.5390327181
H            -6.0672912105        0.0663134501        9.3434833761
C            -6.6296872763        1.2759537400       10.9792808188
H            -7.3563578394        1.9384670872       10.2325754317
C            -6.6467550377        1.6988775613       12.2367652268
C            -5.7936277984        0.9268522918       12.8979355404
H            -5.6794984514        1.2439251199       14.0780873070
C            -5.1518089205        5.6266540057       12.4473645531
H            -4.4169252309        4.9887824579       13.1991420730
C            -8.4668970243        3.0454019323       12.4858117989
H            -8.9565718274        2.2476218179       11.6498173634
C            -9.2804095089        4.0264486064       12.8415012516
C             5.8186475626        4.2985104816       12.3823126408
H             5.4128444383        3.4836295222       11.5517543606
C             4.9883078752        5.2620257583       12.6323116503
C             5.5034032245        0.4261222054       13.5406276538
H             4.8058394942        1.3704193969       13.8782747241
C            -9.6734030584        0.2530883942       14.0447239112
H            -9.2804014973        1.0539434559       14.8987924907
C            -8.9562810913        4.9569536775       13.7289182206
H            -7.8453427449        4.8168947203       14.2251723198
C             0.8873588649        3.4847605833       11.4323645313
H             1.3358809862        2.7462664404       10.6933186098
H             0.4367494480        2.8283540884       12.2403810612
H             1.7828152021        3.9680402199       11.9192354223
C             3.1449600500        0.8116063060       12.1637361210
H             2.2093311286        0.8516849491       11.5241438745
H             3.7208396334        1.7457863099       11.8716049788
H             2.7802783617        1.0127726994       13.2111813144
O            13.2329557166        1.0213074094        0.4066154562
O            -6.6654307224        1.4980194968       18.4937775503
O           -10.4285755654        2.4960186590       17.3360892302
N             0.6607459028        5.5473778172       16.5289207087
C            -4.8689479581        4.2764320195       16.3574995929
H            -4.2857523318        5.1378641350       15.7123608172
C            -5.6502289714        3.5129581315       15.8007980814
H            -5.8476299735        3.6451546001       14.5912478745
C            -6.2437607549        2.6273186511       16.4052392305
H            -7.0255033073        1.8812585033       15.8344196782
C            -6.1057714428        2.3986528596       17.6959562094
C            -5.2409423775        3.2673104698       18.1879403338
H            -5.0466689145        3.1259993432       19.3910336528
C            -4.5664862842        4.2509419511       17.6433383540
C            -3.7469168189        5.0854433333       18.2336167437
H            -3.5330429281        4.8463999106       19.4214986681
C            -3.0401255097        0.5104224888       18.0047376068
H            -3.2211994029        0.7975642662       16.8432505535
C            -2.2008053628        1.3030882465       18.6743667644
C            -1.4722587843        2.3875439620       18.1383438797
C            -0.6462029168        3.1699327919       18.8021898819
H            14.7246486305        2.8815134501        0.4369241539
C             0.0077595363        4.0911537400       18.3619417812
H             0.7344301094        4.7536670872       19.1086471683
C             0.0248272977        4.5140775613       17.1044573732
C            -0.8282999416        3.7420522918       16.4432870596
H            -0.9424292786        4.0591251199       15.2631352830
C            -1.4701188195        2.8114540057       16.8938580469
H            -2.2050025091        2.1735824579       16.1420805270
C             1.8449692843        0.2302019323       16.8554108011
H             2.3346440874        5.0628218179       17.6914052266
C             2.6584817689        1.2112486064       16.4997213484
C           -12.4405753026        1.4833104816       16.9589099592
H           -12.0347721783        0.6684295222       17.7894682294
C           -11.6102356152        2.4468257583       16.7089109497
C           -12.1253309645        3.2413222054       15.8005949462
H           -11.4277672242        4.1856193969       15.4629478759
C             3.0514753184        3.0682883942       15.2964986788
H             2.6584737573        3.8691434559       14.4424301093
C             2.3343533513        2.1417536775       15.6123043794
H             1.2234150049        2.0016947203       15.1160502702
C            -7.5092865949        0.6695605833       17.9088580687
H            -7.9578087262       -0.0689335596       18.6479039902
H            -7.0586771880        0.0131540884       17.1008415388
H            -8.4047429321        1.1528402199       17.4219871777
C            -9.7668877900        3.6268063060       17.1774864790
H            -8.8312588686        3.6668849491       17.8170787255
H           -10.3427673734        4.5609863099       17.4696176212
H            -9.4022061017        3.8279726994       16.1300412756
O             5.5933131366        1.7938925906       10.1870229862
O             0.9742118476        1.3171805032        8.7133700103
O            -2.7889329854        0.3191813410        7.5556817002
N             8.3003884828        2.8982221828        6.7485131687
C             2.7706946219        4.1691679805        6.5770920629
H             3.3538902482        3.3077358650        5.9319532872
C             1.9894135986        4.9326418685        6.0203905414
H             1.7920126065        4.8004453999        4.8108403445
C             1.3958818251        0.1878813489        6.6248317005
H             0.6141392727        0.9339414967        6.0540121382
C             1.5338711372        0.4165471404        7.9155486794
C             2.3987001925        5.1782895302        8.4075328038
H             2.5929736655        5.3196006568        9.6106261228
C             3.0731562958        4.1946580489        7.8629308240
C             3.8927257511        3.3601566667        8.4532092137
H             4.1065996519        3.5992000894        9.6410911381
C             4.5995170703        2.3047775112        8.2243300768
H             4.4184431771        2.0176357338        7.0628430135
C             5.4388372172        1.5121117535        8.8939592344
C             6.1673837957        0.4276560380        8.3579363497
C             6.9934396632        5.2756672081        9.0217823519
H             7.0850060505        5.5640865499       10.2173316939
C             7.6474021163        4.3544462600        8.5815342512
H             8.3740726794        3.6919329128        9.3282396383
C             7.6644698777        3.9315224387        7.3240498432
C             6.8113426384        4.7035477082        6.6628795296
H             6.6972133014        4.3864748801        5.4827277530
C             6.1695237605        0.0037459943        7.1134505069
H             5.4346400709        0.6416175421        6.3616729970
C             9.4846118643        2.5849980677        7.0750032611
H             9.9742866674        3.3827781821        7.9109976966
C            10.2981243489        1.6039513936        6.7193138184
C            -4.8009327226        1.3318895184        7.1785024292
H            -4.3951295983        2.1467704778        8.0090606994
C            -3.9705930352        0.3683742417        6.9285034097
C            -4.4856883845        5.2042777946        6.0201874062
H            -3.7881246442        4.2599806031        5.6825403459
C            10.6911178984        5.3773116058        5.5160911488
H            10.2981163373        4.5764565441        4.6620225793
C             9.9739959313        0.6734463225        5.8318968394
H             8.8630575849        0.8135052797        5.3356427402
C             0.1303559851        2.1456394167        8.1284505387
H            -0.3181661462        2.8841335596        8.8674964602
H             0.5809653920        2.8020459116        7.3204340088
H            -0.7651003521        1.6623597801        7.6415796477
C            -2.1272452100        4.8187936940        7.3970789490
H            -1.1916162886        4.7787150509        8.0366711855
H            -2.7031247934        3.8846136901        7.6892100912
H            -1.7625635217        4.6176273006        6.3496337456
O           -12.2152408766        4.6090925906       19.1541996038
O             7.6831455724        4.1323805032        1.0670375197
O            11.4462904054        3.1343813410        2.2247258298
N             0.3569689372        0.0830221828        3.0318943613
C             5.8866627981        1.3539679805        3.2033154771
H             5.3034671718        0.4925358650        3.8484542528
C             6.6679438214        2.1174418685        3.7600169886
H             6.8653448135        1.9852453999        4.9695671955
C             7.2614755949        3.0030813489        3.1555758295
H             8.0432181473        3.7491414967        3.7263953918
C             7.1234862828        3.2317471404        1.8648588606
C             6.2586572275        2.3630895302        1.3728747262
H             6.0643837545        2.5044006568        0.1697814072
C             5.5842011242        1.3794580489        1.9174767060
C             4.7646316689        0.5449566667        1.3271983263
H             4.5507577681        0.7840000894        0.1393164019
C             4.0578403497        5.1199775112        1.5560774632
H             4.2389142429        4.8328357338        2.7175645165
C             3.2185202028        4.3273117535        0.8864482956
C             2.4899736243        3.2428560380        1.4224711803
C             1.6639177568        2.4604672081        0.7586251781
H           -13.7069337905        2.7488865499       19.1238909061
C             1.0099553037        1.5392462600        1.1988732888
H             0.2832847406        0.8767329128        0.4521678917
C             0.9928875423        1.1163224387        2.4563576868
C             1.8460147816        1.8883477082        3.1175280104
H             1.9601441286        1.5712748801        4.2976797770
C             2.4878336595        2.8189459943        2.6669570231
H             3.2227173491        3.4568175421        3.4187345330
C            -0.8272544443        5.4001980677        2.7054042689
H            -1.3169292474        0.5675781821        1.8694098334
C            -1.6407669289        4.4191513936        3.0610937116
C            13.4582901426        4.1470895184        2.6019051108
H            13.0524870183        4.9619704778        1.7713468306
C            12.6279504552        3.1835742417        2.8519041203
C            13.1430458045        2.3890777946        3.7602201238
H            12.4454820742        1.4447806031        4.0978671941
C            -2.0337604784        2.5621116058        4.2643163812
H            -1.6407589173        1.7612565441        5.1183849507
C            -1.3166385113        3.4886463225        3.9485106906
H            -0.2057001649        3.6287052797        4.4447647898
C             8.5270014349        4.9608394167        1.6519569913
H             8.9755235662        5.6993335596        0.9129110798
H             8.0763920280        5.6172459116        2.4599735212
H             9.4224577721        4.4775597801        2.1388278923
C            10.7846026300        2.0035936940        2.3833285810
H             9.8489737086        1.9635150509        1.7437363445
H            11.3604822134        1.0694136901        2.0911974488
H            10.4199209417        1.8024273006        3.4307737844

K_POINTS gamma
