&CONTROL
  calculation = 'relax'
  prefix = '4amp'
  outdir = './outdir'
  pseudo_dir = 'joyeechan1127/miniconda3/pp'
/
&SYSTEM
  ibrav = 0
  nat = 196
  ntyp = 4
  input_dft = 'pbe'
  ecutwfc = 80
  ecutrho = 800
/
&ELECTRONS
  conv_thr = 1.0E-10
  mixing_mode = 'local-TF'
  mixing_beta = 0.7
  mixing_ndim = 8
  diagonalization = 'david'
  electron_maxstep = 128
/
&IONS
/

ATOMIC_SPECIES
  O   16.00  O.pbe-n-rrkjus_psl.1.0.0.UPF
  N   14.00  N.pbe-n-rrkjus_psl.1.0.0.UPF
  C   12.00  C.pbe-n-rrkjus_psl.1.0.0.UPF
  H    1.00  H.pbe-rrkjus_psl.1.0.0.UPF

CELL_PARAMETERS {angstrom}
       16.29700000     0.00000000     0.00000000
        0.00000000     5.63040000     0.00000000
      -15.27928516     0.00000000    19.56081507

ATOMIC_POSITIONS {angstrom}
O	-4.56454782	3.85457184	9.46117503	1	1	1
O	0.05122032	4.31401248	10.88578919	1	1	1
O	3.81580848	5.3404344	12.02559789	1	1	1
N	-7.33293067	2.72961792	12.78123217	1	1	1
C	-1.81050007	1.54047744	13.04804169	1	1	1
H	-2.25211795	2.19805749	13.53571237	1	1	1
C	-0.95467958	0.71562384	13.66322932	1	1	1
H	-0.80488757	0.81344078	14.57580003	1	1	1
C	-0.30119134	5.36802336	12.98309978	1	1	1
H	0.29226629	4.80150377	13.42198579	1	1	1
C	-0.52537078	5.23458288	11.66567889	1	1	1
C	-1.39326054	0.43748208	11.03464699	1	1	1
H	-1.54748236	0.33145039	10.12369984	1	1	1
C	-2.03888525	1.41942384	11.70929951	1	1	1
C	-2.92349592	2.2831272	10.98867908	1	1	1
H	-3.06487027	2.07481366	10.09349794	1	1	1
C	-3.54519512	3.31855776	11.4403383	1	1	1
H	-3.42072658	3.56336192	12.32882964	1	1	1
C	-4.42565596	4.10906592	10.62093576	1	1	1
C	-5.15727428	5.21487648	11.21206359	1	1	1
C	-5.98460799	0.32036976	10.41769889	1	1	1
H	-6.05528054	0.10747308	9.5151042	1	1	1
C	-6.70516036	1.35073296	10.90828413	1	1	1
H	-7.25261621	1.84433324	10.34182249	1	1	1
C	-6.63228832	1.66885056	12.22433577	1	1	1
C	-5.78834157	0.9656136	13.0122454	1	1	1
H	-5.69565553	1.19941033	13.90756346	1	1	1
C	-5.07710902	5.56227216	12.52107333	1	1	1
H	-4.52252331	5.07854197	13.08925633	1	1	1
C	-8.50054288	2.94413616	12.39099391	1	1	1
H	-8.87397099	2.35901936	11.77238313	1	1	1
C	-9.29147658	4.04938368	12.85067307	1	1	1
C	5.78215199	4.2143544	12.297102	1	1	1
H	5.47180783	3.59981876	11.67156669	1	1	1
C	5.00461711	5.26892832	12.64782741	1	1	1
C	5.43792437	0.51574464	13.57442322	1	1	1
H	4.90420599	1.23434133	13.82799007	1	1	1
C	-9.63611183	0.33726096	14.13268888	1	1	1
H	-9.33655706	0.9379796	14.77637663	1	1	1
C	-8.84696496	4.9378608	13.77335671	1	1	1
H	-8.00388775	4.8367726	14.15426446	1	1	1
C	0.95053493	3.41540064	11.46615858	1	1	1
H	1.29275126	2.82383703	10.79136914	1	1	1
H	0.50126456	2.9033045	12.14221947	1	1	1
H	1.67770005	3.90114651	11.863204	1	1	1
C	3.09269431	0.89354448	12.16624015	1	1	1
H	2.31497388	0.86212685	11.60408188	1	1	1
H	3.64289519	1.63715704	11.90997391	1	1	1
H	2.82172517	0.99623735	13.0815298	1	1	1
O	13.22190524	1.03937184	0.3192325	1	1	1
O	-6.67314805	1.49881248	18.45543341	1	1	1
O	-10.43773622	2.5252344	17.31562471	1	1	1
N	0.71100293	5.54481792	16.55999043	1	1	1
C	-4.81142767	4.35567744	16.29318091	1	1	1
H	-4.36980979	5.01325749	15.80551023	1	1	1
C	-5.66724815	3.53082384	15.67799328	1	1	1
H	-5.81704017	3.62864078	14.76542257	1	1	1
C	-6.3207364	2.55282336	16.35812281	1	1	1
H	-6.91419403	1.98630377	15.91923681	1	1	1
C	-6.09655696	2.41938288	17.67554371	1	1	1
C	-5.22866719	3.25268208	18.3065756	1	1	1
H	-5.07444538	3.14665039	19.21752276	1	1	1
C	-4.58304249	4.23462384	17.63192309	1	1	1
C	-3.69843181	5.0983272	18.35254352	1	1	1
H	-3.55705746	4.89001366	19.24772466	1	1	1
C	-3.07673262	0.50335776	17.9008843	1	1	1
H	-3.20120116	0.74816192	17.01239296	1	1	1
C	-2.19627178	1.29386592	18.72028684	1	1	1
C	-1.46465346	2.39967648	18.12915901	1	1	1
C	-0.63731975	3.13556976	18.92352371	1	1	1
H	14.71263796	2.92267308	0.26530333	1	1	1
C	0.08323262	4.16593296	18.43293847	1	1	1
H	0.63068848	4.65953324	18.99940011	1	1	1
C	0.01036058	4.48405056	17.11688683	1	1	1
C	-0.83358617	3.7808136	16.3289772	1	1	1
H	-0.9262722	4.01461033	15.43365913	1	1	1
C	-1.54481872	2.74707216	16.82014927	1	1	1
H	-2.09940443	2.26334197	16.25196627	1	1	1
C	1.87861514	0.12893616	16.95022869	1	1	1
H	2.25204325	5.17421936	17.56883946	1	1	1
C	2.66954884	1.23418368	16.49054953	1	1	1
C	-12.40407973	1.3991544	17.0441206	1	1	1
H	-12.09373557	0.78461876	17.6696559	1	1	1
C	-11.62654485	2.45372832	16.69339519	1	1	1
C	-12.05985211	3.33094464	15.76679938	1	1	1
H	-11.52613372	4.04954133	15.51323253	1	1	1
C	3.01418409	3.15246096	15.20853371	1	1	1
H	2.71462932	3.7531796	14.56484597	1	1	1
C	2.22503722	2.1226608	15.56786589	1	1	1
H	1.38196001	2.0215726	15.18695813	1	1	1
C	-7.57246266	0.60020064	17.87506402	1	1	1
H	-7.914679	0.00863703	18.54985346	1	1	1
H	-7.1231923	0.0881045	17.19900313	1	1	1
H	-8.29962778	1.08594651	17.4780186	1	1	1
C	-9.71462205	3.70874448	17.17498245	1	1	1
H	-8.93690162	3.67732685	17.73714072	1	1	1
H	-10.26482293	4.45235704	17.43124869	1	1	1
H	-9.44365291	3.81143735	16.25969279	1	1	1
O	5.58226266	1.77582816	10.09964003	1	1	1
O	0.96649452	1.31638752	8.67502587	1	1	1
O	-2.79809364	0.2899656	7.53521718	1	1	1
N	8.35064551	2.90078208	6.77958289	1	1	1
C	2.82821491	4.08992256	6.51277338	1	1	1
H	3.26983279	3.43234251	6.0251027	1	1	1
C	1.97239442	4.91477616	5.89758574	1	1	1
H	1.82260241	4.81695922	4.98501504	1	1	1
C	1.31890618	0.26237664	6.57771528	1	1	1
H	0.72544855	0.82889623	6.13882927	1	1	1
C	1.54308562	0.39581712	7.89513618	1	1	1
C	2.41097538	5.19291792	8.52616807	1	1	1
H	2.5651972	5.29894961	9.43711523	1	1	1
C	3.05660009	4.21097616	7.85151556	1	1	1
C	3.94121076	3.3472728	8.57213599	1	1	1
H	4.08258512	3.55558634	9.46731713	1	1	1
C	4.56290996	2.31184224	8.12047677	1	1	1
H	4.43844142	2.06703808	7.23198542	1	1	1
C	5.4433708	1.52133408	8.93987931	1	1	1
C	6.17498912	0.41552352	8.34875148	1	1	1
C	7.00232283	5.31003024	9.14311618	1	1	1
H	7.07299538	5.52292692	10.04571087	1	1	1
C	7.7228752	4.27966704	8.65253094	1	1	1
H	8.27033105	3.78606676	9.21899258	1	1	1
C	7.65000316	3.96154944	7.3364793	1	1	1
C	6.80605641	4.6647864	6.54856967	1	1	1
H	6.71337038	4.43098967	5.6532516	1	1	1
C	6.09482386	0.06812784	7.03974173	1	1	1
H	5.54023815	0.55185803	6.47155874	1	1	1
C	9.51825772	2.68626384	7.16982115	1	1	1
H	9.89168583	3.27138064	7.78843193	1	1	1
C	10.30919142	1.58101632	6.710142	1	1	1
C	-4.76443715	1.4160456	7.26371307	1	1	1
H	-4.45409299	2.03058124	7.88924837	1	1	1
C	-3.98690227	0.36147168	6.91298765	1	1	1
C	-4.42020953	5.11465536	5.98639184	1	1	1
H	-3.88649114	4.39605867	5.732825	1	1	1
C	10.65382667	5.29313904	5.42812618	1	1	1
H	10.3542719	4.6924204	4.78443844	1	1	1
C	9.8646798	0.6925392	5.78745835	1	1	1
H	9.02160259	0.7936274	5.4065506	1	1	1
C	0.06717992	2.21499936	8.09465649	1	1	1
H	-0.27503642	2.80656297	8.76944593	1	1	1
H	0.51645028	2.7270955	7.4185956	1	1	1
H	-0.6599852	1.72925349	7.69761107	1	1	1
C	-2.07497947	4.73685552	7.39457492	1	1	1
H	-1.29725904	4.76827315	7.95673318	1	1	1
H	-2.62518035	3.99324296	7.65084116	1	1	1
H	-1.80401033	4.63416265	6.47928526	1	1	1
O	-12.2041904	4.59102816	19.24158256	1	1	1
O	7.6908629	4.13158752	1.10538166	1	1	1
O	11.45545106	3.1051656	2.24519035	1	1	1
N	0.30671191	0.08558208	3.00082464	1	1	1
C	5.82914251	1.27472256	3.26763416	1	1	1
H	5.38752463	0.61714251	3.75530484	1	1	1
C	6.684963	2.09957616	3.88282179	1	1	1
H	6.83475501	2.00175922	4.7953925	1	1	1
C	7.33845124	3.07757664	3.20269225	1	1	1
H	7.93190887	3.64409623	3.64157826	1	1	1
C	7.1142718	3.21101712	1.88527136	1	1	1
C	6.24638204	2.37771792	1.25423946	1	1	1
H	6.09216022	2.48374961	0.3432923	1	1	1
C	5.60075733	1.39577616	1.92889197	1	1	1
C	4.71614666	0.5320728	1.20827155	1	1	1
H	4.5747723	0.74038634	0.31309041	1	1	1
C	4.09444746	5.12704224	1.65993077	1	1	1
H	4.218916	4.88223808	2.54842211	1	1	1
C	3.21398662	4.33653408	0.84052822	1	1	1
C	2.4823683	3.23072352	1.43165605	1	1	1
C	1.65503459	2.49483024	0.63729135	1	1	1
H	-13.69492312	2.70772692	19.29551173	1	1	1
C	0.93448222	1.46446704	1.1278766	1	1	1
H	0.38702637	0.97086676	0.56141495	1	1	1
C	1.00735426	1.14634944	2.44392823	1	1	1
C	1.85130101	1.8495864	3.23183787	1	1	1
H	1.94398705	1.61578967	4.12715593	1	1	1
C	2.56253356	2.88332784	2.7406658	1	1	1
H	3.11711927	3.36705803	3.30884879	1	1	1
C	-0.8609003	5.50146384	2.61058638	1	1	1
H	-1.23432841	0.45618064	1.9919756	1	1	1
C	-1.651834	4.39621632	3.07026553	1	1	1
C	13.42179457	4.2312456	2.51669447	1	1	1
H	13.11145041	4.84578124	1.89115916	1	1	1
C	12.64425969	3.17667168	2.86741988	1	1	1
C	13.07756695	2.29945536	3.79401569	1	1	1
H	12.54384857	1.58085867	4.04758254	1	1	1
C	-1.99646925	2.47793904	4.35228135	1	1	1
H	-1.69691448	1.8772204	4.99596909	1	1	1
C	-1.20732238	3.5077392	3.99294918	1	1	1
H	-0.36424517	3.6088274	4.37385693	1	1	1
C	8.5901775	5.03019936	1.68575104	1	1	1
H	8.93239384	5.62176297	1.01096161	1	1	1
H	8.14090714	5.5422955	2.36181193	1	1	1
H	9.31734262	4.54445349	2.08279647	1	1	1
C	10.73233689	1.92165552	2.38583261	1	1	1
H	9.95461646	1.95307315	1.82367435	1	1	1
H	11.28253777	1.17804296	2.12956638	1	1	1
H	10.46136775	1.81896265	3.30112227	1	1	1

K_POINTS gamma
