&CONTROL
  calculation = 'scf'
  prefix = '4amp15iso'
  outdir = './outdir'
  pseudo_dir = '/home/cyk/q-e-qe-7.2/pp/'
/
&SYSTEM
  ibrav = 1
  A = 30
  nat = 49
  ntyp = 4
  input_dft = 'pbe0'
  occupations = 'fixed'
  nbnd = 80
  x_gamma_extrapolation = .true.
  exxdiv_treatment = 'gygi-baldereschi'
  assume_isolated	= 'mp'
  ecutwfc = 80
  ecutrho = 320
  ecutfock = 160
/
&ELECTRONS
  conv_thr = 1.0E-6
  adaptive_thr = .TRUE.
  mixing_mode = 'local-TF'
  mixing_beta = 0.7
  mixing_ndim = 8
  diagonalization = 'david'
  electron_maxstep = 200
/

ATOMIC_SPECIES
  O   16.00  O_ONCV_PBE-1.2.upf
  N   14.00  N_ONCV_PBE-1.2.upf
  C   12.00  C_ONCV_PBE-1.2.upf
  H    1.00  H_ONCV_PBE-1.2.upf

ATOMIC_POSITIONS {angstrom}
O            16.3876216910       12.9955565900       12.1260229126
O            20.8184060722        7.5361131041       13.6088831916
O             8.4044609246       20.5183944568       14.4819030899
N            13.4587281148       17.5439498478       15.4545485103
C            19.5857313588       10.9183887621       15.6406989784
H            19.2629234782       11.8102753854       16.1582640961
C            20.5046182442       10.0795968703       16.2303534777
H            20.8945623975       10.3156092200       17.2118273279
C            20.9506447116        8.9276733083       15.5885019884
H            21.6719278273        8.2903151343       16.0770091404
C            20.4595519107        8.6233636918       14.3261030209
C            19.5348309335        9.4713872323       13.7237779863
H            19.1674729796        9.2181570543       12.7387730840
C            19.0842030348       10.6175381951       14.3672858652
C            18.1100702111       11.4522372939       13.6783815361
H            17.8668839112       11.1662985829       12.6598909346
C            17.4766256980       12.5267804006       14.1576341209
H            17.6550499103       12.8767085399       15.1634230528
C            16.5286043922       13.2723712895       13.3035961664
C            15.7476463383       14.3899263039       13.9047407825
C            15.0839932389       15.2597994145       13.0413192243
H            15.1841202055       15.0937796526       11.9775139442
C            14.3289900770       16.3049284716       13.5275381891
H            13.8543033375       16.9957687909       12.8434928959
C            14.2010028864       16.5016628475       14.9065992728
C            14.8799775369       15.6468583058       15.7738624281
H            14.7919537262       15.8140000804       16.8380385309
C            15.6343157610       14.6021772482       15.2786664236
H            16.1238296975       13.9406937175       15.9790634089
C            12.3414765996       17.8636445384       14.9427273235
H            11.9164847055       17.2948713778       14.1076841314
C            11.5333342380       18.9800040472       15.4251341525
C            10.3436757461       19.2633678968       14.7709686188
H            10.0223909879       18.6708783228       13.9245700944
C             9.5390169885       20.3193926022       15.1901331307
C             9.9310837163       21.0875611611       16.2787986320
H             9.3237048811       21.9095226245       16.6261701050
C            11.1260401990       20.7937016838       16.9313603350
H            11.4205145296       21.3989646300       17.7785722262
C            11.9300210664       19.7551404815       16.5181060203
H            12.8581121198       19.5218966659       17.0190246861
C            21.7565092658        6.6510022938       14.1732574657
H            21.9024231931        5.8570077447       13.4477147098
H            21.3876617272        6.2212366899       15.1075134174
H            22.7116895111        7.1487418264       14.3582425354
C             7.5427448336       21.5525769277       14.8922059705
H             6.6981211740       21.5330146333       14.2109161287
H             8.0318183218       22.5274738400       14.8308678929
H             7.1864065884       21.3915132201       15.9124338428

K_POINTS gamma
