&CONTROL
  calculation = 'relax'
  prefix = '4amp15iso'
  outdir = './outdir'
  pseudo_dir = '/home/cyk/q-e-qe-7.2/pp/'
  etot_conv_thr = 5.0D-4
  forc_conv_thr = 5.0D-3
/
&SYSTEM
  ibrav = 1
  A = 30
  nat = 49
  ntyp = 4
  input_dft = 'pbe0'
  x_gamma_extrapolation = .true.
  exxdiv_treatment = 'gygi-baldereschi'
  assume_isolated	= 'mp'
  ecutwfc = 80
  ecutrho = 320
  ecutfock = 80
/
&ELECTRONS
  conv_thr = 1.0E-6
  adaptive_thr = .TRUE.
  mixing_mode = 'local-TF'
  mixing_beta = 0.7
  mixing_ndim = 8
  diagonalization = 'david'
  electron_maxstep = 200
/
&IONS
/

ATOMIC_SPECIES
  O   16.00  O_ONCV_PBE-1.2.upf
  N   14.00  N_ONCV_PBE-1.2.upf
  C   12.00  C_ONCV_PBE-1.2.upf
  H    1.00  H_ONCV_PBE-1.2.upf

ATOMIC_POSITIONS {angstrom}
O	16.387421	12.995071	12.123281	1	1	1
O	20.817074	7.533862	13.604771	1	1	1
O	8.403677	20.516042	14.478759	1	1	1
N	13.459899	17.546377	15.458029	1	1	1
C	19.58529	10.919157	15.641574	1	1	1
H	19.261805	11.813025	16.159526	1	1	1
C	20.50513	10.080128	16.231312	1	1	1
H	20.895661	10.3163	17.214608	1	1	1
C	20.951049	8.927447	15.589073	1	1	1
H	21.673832	8.2887	16.078247	1	1	1
C	20.460303	8.622005	14.325387	1	1	1
C	19.534828	9.471271	13.723713	1	1	1
H	19.166519	9.21758	12.736212	1	1	1
C	19.083883	10.61833	14.367253	1	1	1
C	18.109833	11.451917	13.677699	1	1	1
H	17.866176	11.165807	12.65708	1	1	1
C	17.475719	12.527717	14.158288	1	1	1
H	17.655792	12.877577	15.166422	1	1	1
C	16.528473	13.272017	13.302093	1	1	1
C	15.748758	14.389073	13.904659	1	1	1
C	15.084252	15.259448	13.04042	1	1	1
H	15.18436	15.093106	11.974602	1	1	1
C	14.328275	16.305097	13.526976	1	1	1
H	13.853048	16.997664	12.841694	1	1	1
C	14.19961	16.502392	14.906765	1	1	1
C	14.879848	15.647289	15.774351	1	1	1
H	14.79168	15.814613	16.840994	1	1	1
C	15.634846	14.601828	15.279206	1	1	1
H	16.125067	13.938738	15.980902	1	1	1
C	12.342047	17.862599	14.942358	1	1	1
H	11.915339	17.293655	14.105429	1	1	1
C	11.533789	18.979186	15.425015	1	1	1
C	10.343574	19.263437	14.770718	1	1	1
H	10.021397	18.669385	13.9223	1	1	1
C	9.537937	20.319559	15.189732	1	1	1
C	9.930826	21.088088	16.278978	1	1	1
H	9.322061	21.911693	16.626994	1	1	1
C	11.126173	20.794175	16.932345	1	1	1
H	11.421246	21.400746	17.780958	1	1	1
C	11.930838	19.755203	16.518688	1	1	1
H	12.860736	19.521234	17.020437	1	1	1
C	21.756847	6.651468	14.173675	1	1	1
H	21.902943	5.855118	13.446288	1	1	1
H	21.387025	6.220007	15.109778	1	1	1
H	22.714281	7.149772	14.358675	1	1	1
C	7.543079	21.552488	14.892629	1	1	1
H	6.696035	21.533151	14.209485	1	1	1
H	8.032675	22.53001	14.830819	1	1	1
H	7.185325	21.391271	15.914918	1	1	1

K_POINTS gamma
