&CONTROL
  calculation = 'scf'
  prefix = '4amp'
  outdir = './outdir'
  pseudo_dir = '/opt/qe/bin/pp/'
/
&SYSTEM
  ibrav = 0
  nat = 196
  ntyp = 4
  occupations = 'fixed'
  nbnd = 285
  input_dft = 'XC_HYB_GGA_XC_TUNED_CAM_B3LYP'
  ecutwfc = 50
  ecutrho = 500
/
&ELECTRONS
  conv_thr = 1.0E-10
  mixing_mode = 'local-TF'
  mixing_beta = 0.7
  mixing_ndim = 8
  diagonalization = 'david'
  electron_maxstep = 128
/

ATOMIC_SPECIES
  O   16.00  O.pbe-n-rrkjus_psl.1.0.0.UPF
  N   14.00  N.pbe-n-rrkjus_psl.1.0.0.UPF
  C   12.00  C.pbe-n-rrkjus_psl.1.0.0.UPF
  H    1.00  H.pbe-rrkjus_psl.1.0.0.UPF

CELL_PARAMETERS {angstrom}
       16.29700000     0.00000000     0.00000000
        0.00000000     5.63040000     0.00000000
      -15.27928516     0.00000000    19.56081507

ATOMIC_POSITIONS {angstrom}
O            -4.5755947161        3.8365154039        9.3738118558
O             0.0435120263        4.3131972376       10.8474112255
O             3.8066223090        5.3112025453       12.0051164204
N            -7.2826075140        2.7321965948       12.8123498837
C            -1.7529823048        1.4612414658       12.9837123778
H            -2.3362155771        2.3227245014       13.6289052368
C            -0.9716982615        0.6977468568       13.5404202350
H            -0.7742820925        0.8299644597       14.7500598407
C            -0.3781691961        5.4425122187       12.9359830990
H             0.4036301650        4.6964055264       13.5068444469
C            -0.5161425143        5.2138268643       11.6452535905
C            -1.3809814010        0.4521092216       11.1532871272
H            -1.5752740533        0.3107870128        9.9501080945
C            -2.0554670537        1.4357616144       11.6978696804
C            -2.8749821008        2.2702075135       11.1076374870
H            -3.0888941617        2.0311802682        9.9196467868
C            -3.5818402201        3.3256427030       11.3364487251
H            -3.4007180025        3.6127843931       12.4980501876
C            -4.4211310438        4.1182790205       10.6668208704
C            -5.1496415129        5.2026986328       11.2028504248
C            -5.9757204290        0.3547333511       10.5390396892
H            -6.0672982410        0.0662977621        9.3434016114
C            -6.6296859797        1.2759424566       10.9792880891
H            -7.3564065171        1.9385145534       10.2325232106
C            -6.6467744608        1.6988954984       12.2367758075
C            -5.7936308554        0.9268634024       12.8979317136
H            -5.6794905868        1.2439451372       14.0781700440
C            -5.1518117460        5.6266505341       12.4473580791
H            -4.4168741904        4.9887367314       13.1991918208
C            -8.4669405367        3.0454528076       12.4858236680
H            -8.9566047007        2.2475692929       11.6497638713
C            -9.2803838595        4.0264109710       12.8414938540
C             5.8186493373        4.2985185390       12.3823126924
H             5.4128190462        3.4835749194       11.5517004123
C             4.9882807666        5.2620347054       12.6322992648
C             5.5033966754        0.4261144009       13.5406303180
H             4.8057926845        1.3704829185       13.8782988380
C            -9.6734104396        0.2530922155       14.0447157793
H            -9.2803723102        1.0540010627       14.8988544964
C            -8.9562852084        4.9569412417       13.7289168497
H            -7.8452648774        4.8168815648       14.2252076279
C             0.8872939426        3.4848314182       11.4323263470
H             1.3359179198        2.7462040108       10.6932634555
H             0.4367185249        2.8283022522       12.2404436024
H             1.7828864248        3.9680724944       11.9192739652
C             3.1450125181        0.8115345192       12.1637266208
H             2.2092578721        0.8516908777       11.5240964148
H             3.7208815787        1.7458577509       11.8715827137
H             2.7802489959        1.0127912793       13.2112615625
O            13.2329521361        1.0213154039        0.4065956742
O            -6.6654397563        1.4979972376       18.4938113745
O           -10.4285500490        2.4960025453       17.3361061796
N             0.6606797740        5.5473965948       16.5288727163
C            -4.8689454352        4.2764414658       16.3575102222
H            -4.2857121629        5.1379245014       15.7123173632
C            -5.6502294685        3.5129468568       15.8008023650
H            -5.8476456475        3.6451644597       14.5911627593
C            -6.2437585439        2.6273122187       16.4052394910
H            -7.0255579050        1.8812055264       15.8343781531
C            -6.1057852257        2.3986268643       17.6959690095
C            -5.2409463290        3.2673092216       18.1879354628
H            -5.0466536867        3.1259870128       19.3911145055
C            -4.5664606863        4.2509616144       17.6433529196
C            -3.7469456292        5.0854075135       18.2335851130
H            -3.5330335683        4.8463802682       19.4215758132
C            -3.0400875199        0.5104427030       18.0047738749
H            -3.2212097375        0.7975843931       16.8431724124
C            -2.2007966962        1.3030790205       18.6744017296
C            -1.4722862271        2.3874986328       18.1383721752
C            -0.6462073110        3.1699333511       18.8021829108
H            14.7246556610        2.8814977621        0.4370059186
C             0.0077582397        4.0911424566       18.3619345109
H             0.7344787871        4.7537145534       19.1086993894
C             0.0248467208        4.5140954984       17.1044467925
C            -0.8282968846        3.7420634024       16.4432908864
H            -0.9424371432        4.0591451372       15.2630525460
C            -1.4701159940        2.8114505341       16.8938645209
H            -2.2050535496        2.1735367314       16.1420307792
C             1.8450127967        0.2302528076       16.8553989320
H             2.3346769607        5.0627692929       17.6914587187
C             2.6584561195        1.2112109710       16.4997287460
C           -12.4405770773        1.4833185390       16.9589099076
H           -12.0347467862        0.6683749194       17.7895221777
C           -11.6102085066        2.4468347054       16.7089233352
C           -12.1253244154        3.2413144009       15.8005922820
H           -11.4277204145        4.1856829185       15.4629237620
C             3.0514826996        3.0682922155       15.2965068107
H             2.6584445702        3.8692010627       14.4423681036
C             2.3343574684        2.1417412417       15.6123057503
H             1.2233371374        2.0016815648       15.1160149621
C            -7.5092216726        0.6696314182       17.9088962530
H            -7.9578456598       -0.0689959892       18.6479591445
H            -7.0586462649        0.0131022522       17.1007789976
H            -8.4048141548        1.1528724944       17.4219486348
C            -9.7669402581        3.6267345192       17.1774959792
H            -8.8311856121        3.6668908777       17.8171261852
H           -10.3428093187        4.5610577509       17.4696398863
H            -9.4021767359        3.8279912793       16.1299610275
O             5.5933095561        1.7938845961       10.1870032042
O             0.9742028137        1.3172027624        8.7134038345
O            -2.7889074690        0.3191974547        7.5556986496
N             8.3003223540        2.8982034052        6.7484651763
C             2.7706971448        4.1691585342        6.5771026922
H             3.3539304171        3.3076754986        5.9319098332
C             1.9894131015        4.9326531432        6.0203948250
H             1.7919969325        4.8004355403        4.8107552293
C             1.3958840361        0.1878877813        6.6248319610
H             0.6140846750        0.9339944736        6.0539706131
C             1.5338573543        0.4165731357        7.9155614795
C             2.3986962410        5.1782907784        8.4075279328
H             2.5929888933        5.3196129872        9.6107069755
C             3.0731818937        4.1946383856        7.8629453896
C             3.8926969408        3.3601924865        8.4531775830
H             4.1066090117        3.5992197318        9.6411682832
C             4.5995550601        2.3047572970        8.2243663449
H             4.4184328425        2.0176156069        7.0627648724
C             5.4388458838        1.5121209795        8.8939941996
C             6.1673563529        0.4277013672        8.3579646452
C             6.9934352690        5.2756666489        9.0217753808
H             7.0850130810        5.5641022379       10.2174134586
C             7.6474008197        4.3544575434        8.5815269809
H             8.3741213571        3.6918854466        9.3282918594
C             7.6644893008        3.9315045016        7.3240392625
C             6.8113456954        4.7035365976        6.6628833564
H             6.6972054368        4.3864548628        5.4826450160
C             6.1695265860        0.0037494659        7.1134569809
H             5.4345890304        0.6416632686        6.3616232492
C             9.4846553767        2.5849471924        7.0749913920
H             9.9743195407        3.3828307071        7.9110511887
C            10.2980986995        1.6039890290        6.7193212160
C            -4.8009344973        1.3318814610        7.1785023776
H            -4.3951042062        2.1468250806        8.0091146477
C            -3.9705659266        0.3683652946        6.9285157952
C            -4.4856818354        5.2042855991        6.0201847420
H            -3.7880778345        4.2599170815        5.6825162320
C            10.6911252796        5.3773077845        5.5160992807
H            10.2980871502        4.5763989373        4.6619605736
C             9.9740000484        0.6734587583        5.8318982103
H             8.8629797174        0.8135184352        5.3356074321
C             0.1304209074        2.1455685818        8.1284887230
H            -0.3182030798        2.8841959892        8.8675516145
H             0.5809963151        2.8020977478        7.3203714676
H            -0.7651715748        1.6623275056        7.6415411048
C            -2.1272976781        4.8188654808        7.3970884492
H            -1.1915430321        4.7787091223        8.0367186452
H            -2.7031667387        3.8845422491        7.6892323563
H            -1.7625341559        4.6176087207        6.3495534975
O           -12.2152372961        4.6090845961       19.1542193858
O             7.6831546063        4.1324027624        1.0670036955
O            11.4462648890        3.1343974547        2.2247088804
N             0.3570350660        0.0830034052        3.0319423537
C             5.8866602752        1.3539585342        3.2033048478
H             5.3034270029        0.4924754986        3.8484977068
C             6.6679443185        2.1174531432        3.7600127050
H             6.8653604875        1.9852355403        4.9696523107
C             7.2614733839        3.0030877813        3.1555755690
H             8.0432727450        3.7491944736        3.7264369169
C             7.1235000657        3.2317731357        1.8648460605
C             6.2586611790        2.3630907784        1.3728795972
H             6.0643685267        2.5044129872        0.1697005545
C             5.5841755263        1.3794383856        1.9174621404
C             4.7646604792        0.5449924865        1.3272299570
H             4.5507484083        0.7840197318        0.1392392568
C             4.0578023599        5.1199572970        1.5560411951
H             4.2389245775        4.8328156069        2.7176426576
C             3.2185115362        4.3273209795        0.8864133304
C             2.4900010671        3.2429013672        1.4224428848
C             1.6639221510        2.4604666489        0.7586321492
H           -13.7069408210        2.7489022379       19.1238091414
C             1.0099566003        1.5392575434        1.1988805591
H             0.2832360629        0.8766854466        0.4521156706
C             0.9928681192        1.1163045016        2.4563682675
C             1.8460117246        1.8883365976        3.1175241836
H             1.9601519932        1.5712548628        4.2977625140
C             2.4878308340        2.8189494659        2.6669505491
H             3.2227683896        3.4568632686        3.4187842808
C            -0.8272979567        5.4001471924        2.7054161380
H            -1.3169621207        0.5676307071        1.8693563413
C            -1.6407412795        4.4191890290        3.0610863140
C            13.4582919173        4.1470814610        2.6019051624
H            13.0524616262        4.9620250806        1.7712928823
C            12.6279233466        3.1835652946        2.8518917348
C            13.1430392554        2.3890855991        3.7602227880
H            12.4454352645        1.4447170815        4.0978913080
C            -2.0337678596        2.5621077845        4.2643082493
H            -1.6407297302        1.7611989373        5.1184469564
C            -1.3166426284        3.4886587583        3.9485093197
H            -0.2056222974        3.6287184352        4.4448000979
C             8.5269365126        4.9607685818        1.6519188070
H             8.9755604998        5.6993959892        0.9128559255
H             8.0763611049        5.6172977478        2.4600360624
H             9.4225289948        4.4775275056        2.1388664352
C            10.7846550981        2.0036654808        2.3833190808
H             9.8489004521        1.9635091223        1.7436888848
H            11.3605241587        1.0693422491        2.0911751837
H            10.4198915759        1.8024087207        3.4308540325

K_POINTS gamma
