&GLOBAL
  PROJECT 4amp34geo
  RUN_TYPE GEO_OPT
  PRINT_LEVEL MEDIUM
  PREFERRED_DIAG_LIBRARY SL
&END GLOBAL

&MOTION
  &GEO_OPT
    MAX_ITER 3000
    OPTIMIZER LBFGS
    MAX_DR    4.0E-03
    MAX_FORCE 5.5E-04
    RMS_DR    2.5E-03
    RMS_FORCE 4.0E-04
  &END GEO_OPT
&END MOTION


&FORCE_EVAL
  METHOD Quickstep              ! Electronic structure method (DFT,...)
  &DFT
    BASIS_SET_FILE_NAME  GTH_BASIS_SETS
    POTENTIAL_FILE_NAME  POTENTIAL
    CHARGE    0 #Net charge
    MULTIPLICITY    1 #Spin multiplicity

    &POISSON                    ! Solver requested for non periodic calculations
      PERIODIC XYZ
      PSOLVER  PERIODIC         ! Type of solver
    &END POISSON
    &SCF
      MAX_SCF 128
      EPS_SCF 1.0E-06 #Convergence threshold of density matrix of inner SCF
#     SCF_GUESS RESTART #Use wavefunction from WFN_RESTART_FILE_NAME file as initial guess
      &DIAGONALIZATION
        ALGORITHM STANDARD #Algorithm for diagonalization
      &END DIAGONALIZATION
      &MIXING #How to mix old and new density matrices
        METHOD BROYDEN_MIXING #PULAY_MIXING is also a good alternative
        ALPHA 0.4 #Default. Mixing 40% of new density matrix with the old one
        NBROYDEN 8 #Default is 4. Number of previous steps stored for the actual mixing scheme
      &END MIXING
      &PRINT
        &RESTART #Note: Use "&RESTART OFF" can prevent generating .wfn file
          BACKUP_COPIES 0 #Maximum number of backup copies of wfn file. 0 means never
        &END RESTART
      &END PRINT
    &END SCF
    &XC
      &VDW_POTENTIAL
        DISPERSION_FUNCTIONAL PAIR_POTENTIAL
        &PAIR_POTENTIAL
          CALCULATE_C9_TERM .TRUE.
          PARAMETER_FILE_NAME dftd3.dat
          REFERENCE_C9_TERM .TRUE.
          REFERENCE_FUNCTIONAL PBE
          R_CUTOFF 16
          TYPE DFTD3(BJ)
          VERBOSE_OUTPUT T
        &END PAIR_POTENTIAL
      &END VDW_POTENTIAL
      &XC_FUNCTIONAL PBE
      &END XC_FUNCTIONAL
    &END XC
    &MGRID
      CUTOFF  400
      REL_CUTOFF  60
    &END MGRID
  &END DFT

  &SUBSYS
    &CELL
      ABC [angstrom] 20.7553 5.76339 17.1143
      PERIODIC XYZ #Direction(s) of applied PBC (geometry aspect)
      ALPHA_BETA_GAMMA [deg] 90 90.9064 90
    &END CELL
    &COORD
      O       7.645074   0.807993   8.014000
      O      12.974860   3.689688   0.542079
      O      12.839495   4.955397   9.098158
      O       7.509709   2.073702  16.570080
      O       1.627453   0.042632   5.550021
      O      18.992482   2.924327   3.006059
      O      18.857116   5.720758  11.562138
      O       1.492087   2.839063  14.106100
      O      16.389122   5.198388  15.646194
      O       3.960082   2.316693  10.022044
      O       4.095447   0.565002   1.465964
      O      16.524487   3.446697   7.090115
      N      11.707731   3.004196  12.171741
      N       8.641472   0.122501  13.496496
      N       8.776837   2.759194   4.940417
      N      11.843097   5.640889   3.615662
      C       4.535892   4.733224   7.281771
      C      16.084043   1.851529   1.274308
      C      15.948677   1.030166   9.830387
      C       4.400526   3.911861  15.837850
      H       5.121258   5.066452   7.923015
      H      15.498677   2.184757   0.633064
      H      15.363311   0.696938   9.189144
      H       4.985892   3.578633  16.479094
      C       3.482913   5.457054   6.905304
      C      17.137022   2.575359   1.650776
      C      17.001656   0.306336  10.206855
      C       3.347547   3.188031  15.461383
      H       3.331609   0.525696   7.292158
      H      17.288326   3.407391   1.263921
      H      17.152960   5.237694   9.820000
      H       3.196243   2.355999  15.848237
      C       2.659446   5.003764   5.993568
      C      17.960489   2.122069   2.562512
      C      17.825123   0.759626  11.118591
      C       2.524080   3.641321  14.549647
      C       2.844204   3.823825   5.387797
      C      17.775730   0.942130   3.168282
      C      17.640365   1.939565  11.724361
      C       2.708839   4.821260  13.943877
      H       2.263757   3.521431   4.726892
      H      18.356177   0.639736   3.829188
      H      18.220812   2.241959  12.385267
      H       2.128391   5.123654  13.282971
      C       3.897444   3.100519   5.774019
      C      16.722490   0.218824   2.782061
      C      16.587124   2.662871  11.338140
      C       3.762079   5.544566  14.330098
      H       4.044463   2.278706   5.364148
      H      16.575471   5.160401   3.191931
      H      16.440106   3.484684  11.748010
      H       3.909098   0.602989  13.920228
      C       4.759634   3.504464   6.730760
      C      15.860300   0.622769   1.825320
      C      15.724934   2.258926  10.381399
      C       4.624269   5.140621  15.286839
      C       5.820509   2.663643   7.185430
      C      14.799426   5.545338   1.370650
      C      14.664060   3.099747   9.926729
      C       5.685143   0.218052  15.741509
      H       5.842282   1.811750   6.812812
      H      14.777653   4.693445   1.743267
      H      14.642287   3.951640  10.299346
      H       5.706916   1.069945  15.368892
      C       6.745040   2.916310   8.032481
      C      13.874895   0.034615   0.523598
      C      13.739529   2.847080   9.079677
      C       6.609674   5.728775  16.588561
      H       6.803002   3.774081   8.387131
      H      13.816932   0.892386   0.168948
      H      13.681567   1.989309   8.725028
      H       6.667637   4.871004  16.943210
      C       7.695961   1.929560   8.457719
      C      12.923973   4.811255   0.098361
      C      12.788607   3.833830   8.654440
      C       7.560596   0.952135  17.013798
      C       8.699687   2.269882   9.441668
      C      11.649516   5.151577  16.226570
      C      11.784882   3.493508   7.670491
      C       8.835053   0.611813   0.885588
      C       9.646537   1.370165   9.743868
      C      10.702667   4.251860  15.924369
      C      10.838032   4.393225   7.368290
      C       9.781902   1.511530   1.187789
      H       9.617010   0.539718   9.326144
      H      10.732193   3.421413  16.342094
      H      10.867558   5.223672   7.786015
      H       9.752376   2.341977   0.770064
      C      10.639868   1.610556  10.623947
      C       9.709336   4.492251  15.044291
      C       9.844701   4.152834   6.488212
      C      10.775233   1.271139   2.067867
      H      11.286495   0.963887  10.793408
      H       9.062708   3.845582  14.874829
      H       9.198073   4.799503   6.318750
      H      11.421861   1.917808   2.237329
      C      10.682903   2.815796  11.262230
      C       9.666300   5.697491  14.406008
      C       9.801666   2.947594   5.849928
      C      10.818268   0.065899   2.706151
      C       9.712382   3.705030  11.000072
      C      10.636822   0.823335  14.668166
      C      10.772187   2.058360   6.112087
      C       9.847747   4.940055   2.443993
      H       9.705962   4.515662  11.455700
      H      10.643241   1.633967  14.212537
      H      10.778607   1.247728   5.656458
      H       9.841327   4.129423   2.899621
      C       8.753818   3.456051  10.100144
      C      11.595385   0.574356  15.568094
      C      11.730750   2.307339   7.012015
      C       8.889184   5.189034   1.544064
      H       8.113629   4.106778   9.922571
      H      12.235575   1.225083  15.745667
      H      12.370940   1.656612   7.189588
      H       8.248994   4.538307   1.366491
      C      12.293330   4.102300  12.179100
      C       8.055874   1.220605  13.489138
      C       8.191239   1.661090   4.933059
      C      12.428695   4.542785   3.623020
      H      12.016281   4.762237  11.585274
      H       8.332923   1.880542  14.082964
      H       8.468288   1.001153   5.526885
      H      12.151646   3.882848   3.029194
      C      13.364520   4.382171  13.057467
      C       6.984683   1.500476  12.610771
      C       7.120049   1.381219   4.054692
      C      13.499886   4.262914   4.501388
      C      13.759165   3.502337  13.983406
      C       6.590038   0.620642  11.684832
      C       6.725404   2.261053   3.128753
      C      13.894531   5.142748   5.427326
      H      13.315399   2.688068  14.054096
      H       7.033805   5.569763  11.614142
      H       7.169170   3.075322   3.058063
      H      13.450764   0.193627   5.498017
      C      14.784781   3.766819  14.816939
      C       5.564423   0.885124  10.851299
      C       5.699788   1.996571   2.295220
      C      14.920146   4.878266   6.260860
      H      15.049475   3.144886  15.455719
      H       5.299728   0.263191  10.212519
      H       5.435094   2.618504   1.656440
      H      15.184840   5.500199   6.899639
      C      15.409795   4.933566  14.707421
      C       4.939408   2.051871  10.960817
      C       5.074774   0.829824   2.404737
      C      15.545161   3.711519   6.151342
      C      15.066260   0.064994  13.804413
      C       5.282943   2.946689  11.863825
      C       5.418309   5.698396   3.307746
      C      15.201626   2.816701   5.248333
      H      15.527129   0.870174  13.740293
      H       4.822074   3.751869  11.927945
      H       4.957440   4.893216   3.371865
      H      15.662495   2.011521   5.184214
      C      14.031337   5.560496  12.968826
      C       6.317866   2.678801  12.699412
      C       6.453232   0.202894   4.143333
      C      14.166703   3.084589   4.412747
      H      13.777415   0.424917  12.331347
      H       6.571788   3.306612  13.336891
      H       6.707153   5.338473   4.780812
      H      13.912781   2.456778   3.775267
      C      17.560185   5.499542  15.357067
      C       2.789018   2.617847  10.311171
      C       2.924384   0.263848   1.755091
      C      17.695551   3.145543   6.800988
      F      17.300842   1.138103  15.323322
      F       3.048361   4.019798  10.344916
      F       3.183727   4.625287   1.788837
      F      17.436208   1.743592   6.767243
      F      18.322196   5.727202  16.293735
      F       2.027008   2.845507   9.374502
      F       2.162373   0.036188   0.818423
      F      18.457561   2.917883   7.737656
      F      17.992928   4.933584  14.292126
      F       2.356275   2.051889  11.376112
      F       2.491640   0.829806   2.820032
      F      18.128294   3.711501   5.736047
      C       0.525968   5.743917   6.207316
      C      20.093966   2.862222   2.348764
      C      19.958601   0.019473  10.904843
      C       0.390603   2.901168  14.763395
      F       0.182019   4.749041   6.773591
      F      20.437916   1.867346   1.782488
      F      20.302550   1.014349  10.338567
      F       0.046653   3.896044  15.329671
      F      20.300541   0.597787   5.586675
      F       0.319394   3.479482   2.969404
      F       0.184028   5.165603  11.525484
      F      20.165175   2.283908  14.142754
      F       0.869955   1.119432   7.003082
      F      19.749980   4.001127   1.552997
      F      19.614614   4.643958  10.109076
      F       0.734589   1.762263  15.559162
    &END COORD
    &KIND O
      ELEMENT O
      BASIS_SET TZVP-GTH-q6
      POTENTIAL GTH-PBE
    &END KIND
    &KIND N
      ELEMENT N
      BASIS_SET TZVP-GTH-q5
      POTENTIAL GTH-PBE
    &END KIND
    &KIND C
      ELEMENT C
      BASIS_SET TZVP-GTH-q4
      POTENTIAL GTH-PBE
    &END KIND
    &KIND H
      ELEMENT H
      BASIS_SET TZVP-GTH-q1
      POTENTIAL GTH-PBE
    &END KIND
    &KIND F
      ELEMENT F
      BASIS_SET TZVP-GTH-q7
      POTENTIAL GTH-PBE
    &END KIND
  &END SUBSYS
&END FORCE_EVAL
