&GLOBAL
  PROJECT 4amp34solvent
  PRINT_LEVEL LOW
  RUN_TYPE ENERGY
  PREFERRED_DIAG_LIBRARY SL
&END GLOBAL

&FORCE_EVAL
  METHOD Quickstep
  &SUBSYS
    &CELL
      ABC [angstrom] 20.7553 5.76339 17.1143
      PERIODIC XYZ #Direction(s) of applied PBC (geometry aspect)
      ALPHA_BETA_GAMMA [deg] 90 90.9064 90
    &END CELL
    &COORD
      O         7.6644871520        0.7025267194        7.8341538318
      O        12.9554478627        3.5842229577        0.7219251719
      O        12.8200816744        5.0608633411        9.2780047348
      O         7.5291209262        2.1791670728       16.3902332798
      O         1.4969913070        0.0833601523        5.3949093216
      O        19.1229400845        2.9650564593        3.1611668678
      O        18.9875775765        5.6800298313       11.7172491720
      O         1.3616287512        2.7983335935       13.9509916387
      O        16.3896992157        5.2123506105       15.8423147809
      O         3.9595049993        2.3306556046        9.8259246999
      O         4.0948695654        0.5510393367        1.2698437159
      O        16.5250637622        3.4327344289        7.2862338273
      N        11.7019483210        2.9079582362       12.1796352188
      N         8.6472447939        0.0262595882       13.4886153701
      N         8.7826204742        2.8554317489        4.9325232459
      N        11.8373239413        5.7371304051        3.6235431440
      C         4.5013785868        4.7276502448        7.1947380753
      C        16.1185668987        1.8459465849        1.3613222369
      C        15.9831902354        1.0357397988        9.9174204908
      C         4.3660018813        3.9174433659       15.7508363094
      H         5.2013287404        5.0909186311        7.9458502300
      H        15.4186190721        2.2092135518        0.6102073950
      H        15.2832401153        0.6724713671        9.1663083251
      H         5.0659497208        3.5541764390       16.5019511183
      C         3.4139612407        5.5192064180        6.8505570212
      C        17.2059806331        2.6375049849        1.7055080517
      C        17.0706075992        0.2441836388       10.2616015224
      C         3.2785881524        3.1258849628       15.4066504661
      H         3.2056741090        0.6966063569        7.3588329363
      H        17.4142676434        3.5782966706        1.1972355201
      H        17.2788947520        5.0667837129        9.7533256072
      H         3.0703011448        2.1850932744       15.9149230103
      C         2.5630377423        5.0447172913        5.8454768936
      C        18.0568996983        2.1630187078        2.7105933973
      C        17.9215311275        0.7186727146       11.2666816513
      C         2.4276691553        3.6003712978       14.4015650957
      C         2.7624886341        3.8346495082        5.1910013380
      C        17.8574496160        0.9529504830        3.3650681623
      C        17.7220801968        1.9287404940       11.9211572251
      C         2.6271192005        4.8104395318       13.7470903762
      H         2.0772601501        3.5171354258        4.4108077134
      H        18.5426746788        0.6354379285        4.1452654802
      H        18.4073086399        2.2462546311       12.7013508635
      H         1.9418940552        5.1279520038       12.9668930715
      C         3.8608655214        3.0547994983        5.5481089655
      C        16.7590757738        0.1730981162        3.0079560882
      C        16.6237033173        2.7085905284       11.5640496107
      C         3.7254930469        5.5902918230       14.1042024893
      H         4.0561227537        2.1095499418        5.0370166310
      H        16.5638147429        4.9912398099        3.5190495495
      H        16.4284460289        3.6538401042       12.0751419298
      H         3.9207539927        0.7721500908       13.5931089747
      C         4.7244938357        3.4833409550        6.5752143865
      C        15.8954510591        0.6016382464        1.9808473606
      C        15.7600750012        2.2800490961       10.5369441813
      C         4.5891177939        5.1617516767       15.1313111577
      C         5.7778637092        2.5912491551        7.0026000018
      C        14.8420785851        5.4729395231        1.5534647199
      C        14.7067050995        3.1721408743       10.1095585445
      C         5.6424902288        0.2904504634       15.5586937659
      H         5.8739800683        1.6442254238        6.4674167747
      H        14.7459559767        4.5259191408        2.0886526644
      H        14.6105888198        4.1191646489       10.6447417402
      H         5.7386127208        1.2374708633       15.0235058037
      C         6.6109726871        2.8134095435        8.0412840664
      C        14.0089712549        5.6950994340        0.5147797285
      C        13.8735960733        2.9499804602        9.0708745461
      C         6.4755975817        5.8316806017       16.5973786772
      H         6.5604878880        3.7392640637        8.6041105470
      H        14.0594650461        0.8575576272       17.0662437300
      H        13.9240808027        2.0241258689        8.5080481228
      H         6.4251039092        4.9058323659       17.1602146126
      C         7.6209717863        1.8203262474        8.3958046617
      C        12.9989651412        4.7020202335        0.1602697195
      C        12.8635969882        3.9430637878        8.7163539115
      C         7.4856036844        1.0613697611       16.9518887019
      C         8.6200255784        2.1766236196        9.4183209515
      C        11.7291765964        5.0583182816       16.2499173881
      C        11.8645431784        3.5867664150        7.6938376082
      C         8.7553922394        0.7050717066        0.8622410147
      C         9.6665733135        1.2593713735        9.6139610941
      C        10.6826276226        4.1410668612       16.0542837771
      C        10.8179954288        4.5040186449        7.4981974199
      C         9.8019411956        1.6223231366        1.0578747030
      H         9.6473846172        0.3512698394        9.0252936419
      H        10.7018196432        3.2329666440       16.6429528006
      H        10.8371841467        5.4121201836        8.0868648741
      H         9.7827492148        2.5304233550        0.4692056916
      C        10.6829750109        1.5248276679       10.5087415031
      C         9.6662229155        4.4065225404       15.1595071117
      C         9.8015937503        4.2385623221        6.6034169908
      C        10.8183459011        1.3568674638        1.9526513848
      H        11.5182285491        0.8347078865       10.6084422426
      H         8.8309681214        3.7164039284       15.0598097258
      H         8.9663402430        4.9286821332        6.5037162170
      H        11.6536007167        2.0469860773        2.0523487992
      C        10.6595995357        2.7092511296       11.2592919380
      C         9.6895971665        5.5909447270       14.4089548683
      C         9.8249692306        3.0541388538        5.8528665725
      C        10.7949716105        0.1724452514        2.7032035984
      C         9.5928030021        3.6201825692       11.1108468673
      C        10.7563951061        0.7384855577       14.5573936675
      C        10.8917657648        2.1432074086        6.0013117023
      C         9.7281736709        5.0249044149        2.5547647964
      H         9.5137107949        4.4917612280       11.7602330203
      H        10.8354869075        1.6100630947       13.9080060304
      H        10.9708579990        1.2716287780        5.3519255033
      H         9.6490818818        4.1533268815        3.2041524731
      C         8.5920534780        3.3551721287       10.1768554432
      C        11.7571478025        0.4734754755       15.4913815077
      C        11.8925152776        2.4082178673        6.9353031484
      C         8.7274210048        5.2899145338        1.6207769329
      H         7.7863939142        4.0762244479       10.0540292873
      H        12.5628096003        1.1945259405       15.6142032222
      H        12.6981748417        1.6871655286        7.0581293264
      H         7.9217592433        4.5688640409        1.4979552076
      C        12.2461013941        4.0754103748       12.2233814243
      C         8.1030940108        1.1937129239       13.4448680580
      C         8.2384674188        1.6879795996        4.8887770559
      C        12.3814747523        4.5696770784        3.6672904446
      H        11.9519174123        4.8788646318       11.5296427681
      H         8.3972812164        1.9971675139       14.1386049925
      H         8.5326513863        0.8845253446        5.5825157626
      H        12.0872875463        3.7662224836        2.9735535430
      C        13.3340346221        4.3746667668       13.1349226974
      C         7.0151604131        1.4929689019       12.5333274065
      C         7.1505342080        1.3887232315        3.9772357457
      C        13.4694083156        4.2704210672        4.5788311075
      C        13.6588594934        3.4846778396       14.1760815678
      C         6.6903371703        0.6029794634       11.4921687186
      C         6.8257093501        2.2787121468        2.9360768384
      C        13.7942315555        5.1604105093        5.6199897794
      H        13.0653938700        2.5835728833       14.2996922719
      H         7.2838049862        5.4652657689       11.3685587934
      H         7.4191750155        3.1798171164        2.8124661863
      H        13.2007637755        0.2981242132        5.7435997134
      C        14.6959269046        3.7895956044       15.0450925243
      C         5.6532716449        0.9078969977       10.6231552835
      C         5.7886419296        1.9737943124        2.0670659120
      C        14.8312971004        4.8554930321        6.4890032038
      H        14.9767972875        3.1254900852       15.8595338896
      H         5.3724028559        0.2437905872        9.8087139975
      H         5.5077715779        2.6378998968        1.2526246026
      H        15.1121658676        5.5195994375        7.3034445038
      C        15.3932210735        4.9846856944       14.8745703185
      C         4.9559789457        2.1029885209       10.7936741416
      C         5.0913476869        0.7787042800        2.2375881906
      C        15.5285897813        3.6604014850        6.3184844008
      C        15.1033397155        0.1217202687       13.8423772439
      C         5.2458584189        3.0034134275       11.8258677599
      C         5.3812291271        5.6416697008        3.2697812446
      C        15.2387103292        2.7599765767        5.2862907763
      H        15.6770041432        1.0300565921       13.6831084062
      H         4.6721951548        3.9117509301       11.9851344737
      H         4.8075646719        4.7333334098        3.4290501059
      H        15.8123735566        1.8516390471        5.1270240654
      C        14.0585741853        5.5628320519       12.9737482055
      C         6.2906214040        2.6811347217       12.6944997146
      C         6.4259946609        0.2005579296        4.1384102952
      C        14.1939473423        3.0822552618        4.4176588262
      H        13.7965364213        0.4870958375       12.1675919704
      H         6.5526591986        3.3687901822       13.5006544249
      H         6.6880323650        5.2762941635        4.9445665964
      H        13.9319095401        2.3945997991        3.6115041289
      C        17.5609787660        5.7746260191       15.4105000695
      C         2.7882246087        2.8929314620       10.2577380902
      C         2.9235900327        5.7521539440        1.7016584672
      C        17.6963441716        2.8704585636        6.8544204621
      F        17.4363082186        1.3561729221       15.1386616774
      F         2.9128949671        4.2378680738       10.5295762152
      F         3.0482605982        4.4072170615        1.9734968705
      F        17.5716738424        1.5255219412        6.5825823243
      F        18.4671694120        5.6075676437       16.3950338534
      F         1.8820340055        2.7258726692        9.2732040733
      F         2.0173993964        0.1558223283        0.7171246790
      F        18.6025347976        3.0375173511        7.8389544602
      F        18.0191503486        5.2008603299       14.2623999671
      F         2.3300527612        2.3191652892       11.4058378110
      F         2.4654184691        0.5625296744        2.8497585589
      F        18.1545160459        3.4442247086        5.7063207243
      C         0.4422404691        5.9935403139        6.2442521359
      C        20.1776939392        3.1118456650        2.3118263411
      C        20.0423283981        5.5332396780       10.8679063517
      C         0.3068749154        2.6515444047       14.8003321984
      F         0.0518139360        4.8140696654        6.8098578933
      F        20.5681204745        1.9323745183        1.7462215461
      F        20.4327548853        0.9493203417       10.3023006164
      F        20.6717483500        3.8310155337       15.3659369896
      F        20.1842612061        0.7228844628        5.4786612737
      F         0.4356728759        3.6045794900        3.0774178581
      F         0.3003076331        5.0405055305       11.6334972405
      F        20.0488959667        2.1588105344       14.0347406938
      F         0.6900255003        1.1090543025        7.2760436613
      F        19.9299093539        3.9907494197        1.2800348913
      F        19.7945433291        4.6543356831        9.8361148423
      F         0.5546594711        1.7726406261       15.8321236346
    &END COORD
    &KIND O
      ELEMENT O
      BASIS_SET TZVP-GTH-q6
      POTENTIAL GTH-PBE
    &END KIND
    &KIND N
      ELEMENT N
      BASIS_SET TZVP-GTH-q5
      POTENTIAL GTH-PBE
    &END KIND
    &KIND C
      ELEMENT C
      BASIS_SET TZVP-GTH-q4
      POTENTIAL GTH-PBE
    &END KIND
    &KIND H
      ELEMENT H
      BASIS_SET TZVP-GTH-q1
      POTENTIAL GTH-PBE
    &END KIND
    &KIND F
      ELEMENT F
      BASIS_SET TZVP-GTH-q7
      POTENTIAL GTH-PBE
    &END KIND
  &END SUBSYS

  &DFT
    BASIS_SET_FILE_NAME  GTH_BASIS_SETS
    POTENTIAL_FILE_NAME  POTENTIAL
#   WFN_RESTART_FILE_NAME 4amp33solvent-RESTART.wfn
    CHARGE    0 #Net charge
    MULTIPLICITY    1 #Spin multiplicity
    &QS
      EPS_DEFAULT 1.0E-12 #Set all EPS_xxx to values such that the energy will be correct up to this value
    &END QS
    &POISSON
      PERIODIC XYZ #Direction(s) of PBC for calculating electrostatics
      PSOLVER PERIODIC #The way to solve Poisson equation
    &END POISSON
    &XC
      &VDW_POTENTIAL
        DISPERSION_FUNCTIONAL PAIR_POTENTIAL
        &PAIR_POTENTIAL
          CALCULATE_C9_TERM .TRUE.
          PARAMETER_FILE_NAME dftd3.dat
          REFERENCE_C9_TERM .TRUE.
          REFERENCE_FUNCTIONAL PBE
          R_CUTOFF 16
          TYPE DFTD3(BJ)
          VERBOSE_OUTPUT T
        &END PAIR_POTENTIAL
      &END VDW_POTENTIAL
      &XC_FUNCTIONAL PBE
      &END XC_FUNCTIONAL
    &END XC
    &MGRID
      CUTOFF  400
      REL_CUTOFF  60
    &END MGRID
    &SCCS ON
      ALPHA [mN/m] 9.88
      BETA [GPa] -0.5
      DELTA_RHO 2.0E-5
      DERIVATIVE_METHOD CD5
      DIELECTRIC_CONSTANT 36.71
      EPS_SCCS 1.0E-8
      EPS_SCF 1.0E-2
      GAMMA [mN/m] 36.42
      MAX_ITER 100
      METHOD Fattebert-Gygi
      MIXING 0.6
    &END SCCS
    &SCF
      MAX_SCF 128
      EPS_SCF 1.0E-06 #Convergence threshold of density matrix of inner SCF
 #    SCF_GUESS RESTART #Use wavefunction from WFN_RESTART_FILE_NAME file as initial guess
      &DIAGONALIZATION
        ALGORITHM STANDARD #Algorithm for diagonalization
      &END DIAGONALIZATION
      &MIXING #How to mix old and new density matrices
        METHOD BROYDEN_MIXING #PULAY_MIXING is also a good alternative
        ALPHA 0.4 #Default. Mixing 40% of new density matrix with the old one
        NBROYDEN 8 #Default is 4. Number of previous steps stored for the actual mixing scheme
      &END MIXING
      ADDED_MOS    30 #Number of virtual MOs to solve
      &PRINT
        &RESTART #Note: Use "&RESTART OFF" can prevent generating .wfn file
          BACKUP_COPIES 0 #Maximum number of backup copies of wfn file. 0 means never
        &END RESTART
      &END PRINT
    &END SCF
    &PRINT
      &MO_MOLDEN #Exporting .molden file containing wavefunction information
        NDIGITS 9 #Output orbital coefficients if absolute value is larger than 1E-9
      &END MO_MOLDEN
      &MO_CUBES
        NHOMO 1
        NLUMO 1
        WRITE_CUBE T
        STRIDE 1 1 1
        &EACH
          MD 10
        &END
      &END MO_CUBES
      &SCCS ON
       &EACH
        QS_SCF 1
       &END EACH
      &END SCCS
      &DOS ON
      &END DOS
    &END PRINT
  &END DFT
  &PROPERTIES
     &TDDFPT #TDDFT calculation with Tamm-Dancoff approximation
      MAX_ITER 100
      NSTATES   500 #Number of excited states to solve
      RKS_TRIPLETS F #If calculating triplet rather than singlet excited states
      CONVERGENCE [eV] 1E-4 #Convergence criterion of all excitation energies
      MIN_AMPLITUDE 0.01 #The smallest excitation amplitude to print
 #    RESTART T #If restarting TDDFT calculation. If true, WFN_RESTART_FILE_NAME should be set to previous .tdwfn file
 #    WFN_RESTART_FILE_NAME 4amp15pbedft-RESTART.tdwfn
      &PRINT
        #&DETAILED_ENERGY #Print excitation energies at every Davidson iteration
        #&END DETAILED_ENERGY
      &END PRINT
    &END TDDFPT
  &END PROPERTIES
&END FORCE_EVAL
