&CONTROL
  calculation = 'scf'
  prefix = '4amp33'
  outdir = './outdir'
  pseudo_dir = '/home/joyeechan1127/q-e-qe-7.2/pp/'
/
&SYSTEM
  a     =  5.64230e+00
  b     =  2.03530e+01
  c     =  1.74919e+01
  cosab =  1.10721e-01
  cosac =  1.27686e-01
  cosbc =  2.45255e-01
  ibrav = 14
  nat   = 188
  ntyp  = 5
  input_dft = 'pbe'
  vdw_corr = 'DFT-D3'
  dftd3_version = 4
  ecutwfc = 60
  ecutrho = 600
  occupations = 'fixed'
  nbnd = 285 
/
&ELECTRONS
  conv_thr = 1.0E-7
  mixing_mode = 'local-TF'
  mixing_beta = 0.7
  mixing_ndim = 8
  diagonalization = 'david'
  electron_maxstep = 200
/

ATOMIC_SPECIES
  O   16.00  O.pbe-n-rrkjus_psl.1.0.0.UPF
  N   14.00  N.pbe-n-rrkjus_psl.1.0.0.UPF
  C   12.00  C.pbe-n-rrkjus_psl.1.0.0.UPF
  H    1.00  H.pbe-rrkjus_psl.1.0.0.UPF
  F   19.00  F.pbe-n-rrkjus_psl.1.0.0.UPF

ATOMIC_POSITIONS {angstrom}
O             6.6416227290        5.7479356804        5.5597644563
O             2.3602239863        8.4340394040       11.3052712246
N             4.3729141428       10.4298176398        9.1519002503
N             4.6294079792        3.7518723573        7.7133005580
C             2.7008636790        4.7392254672        2.3001018946
C             6.3017302646        9.4423237487       14.5650080038
H             2.3503105455        5.6571003336        2.7680811615
H             6.6521986549        8.5245424291       14.0970469942
C             1.9365430446        4.1765769257        1.2875940928
C             7.0659434755       10.0050656178       15.5775122514
H             1.0220962400        4.6657955339        0.9624065069
H             7.9804300656        9.5158172385       15.9027097620
C             2.3725344105        2.9996732721        0.6603483934
C             6.6300266893       11.1819255407       16.2047807188
C             3.5564076115        2.3797159467        1.0599810103
C             5.4460402667       11.8019028899       15.8050776828
H             3.8816442856        1.4554773294        0.5871777355
H             5.1208775394       12.7261442075       16.2779416337
C             4.3149511086        2.9504140471        2.0771416559
C             4.6876720568       11.2311801735       14.7880315994
H             5.2313088165        2.4663987391        2.4073159740
H             3.7711804837       11.7152369607       14.4577875827
C             3.9110863433        4.1481423914        2.6988447234
C             5.0913435602       10.0336302978       14.1663208470
C             4.7877808427        4.7196630903        3.7038064132
C             4.2149944148        9.4612897392       13.1609869053
H             5.7142088599        4.1773395340        3.9076134072
H             3.2881918067       10.0043661118       12.9574868770
C             4.5694637662        5.8577603844        4.3979522499
C             4.4326878276        8.3245460140       12.4674418773
H             3.6601588951        6.4309747254        4.2500677796
H             5.3425214121        7.7505226561       12.6150570157
C             5.5385845633        6.3036989048        5.4105565116
C             3.4647532590        7.8774784322       11.4546625192
C             5.1477105918        7.4073907668        6.3226408538
C             3.8546759510        6.7742297827       10.5423589330
C             6.0013120969        7.6442385263        7.4162880987
C             3.0012963677        6.5374101009        9.4489511457
H             6.8785875444        7.0132838572        7.5191307673
H             2.1239096883        7.1683464182        9.3459756124
C             5.7026669792        8.6207513704        8.3431021920
C             3.2998298534        5.5608188513        8.5219259884
H             6.3477830123        8.7930628418        9.2041162613
H             2.6547493042        5.3885591257        7.6610169687
C             4.5509605550        9.4111205808        8.2034551357
C             4.4515923880        4.7704937500        8.6616818386
C             3.6901376479        9.1896601038        7.1119684536
C             5.3123746740        4.9919012652        9.7530688985
H             2.8247877666        9.8342944795        6.9575399423
H             6.1777265911        4.3473314086        9.9075762027
C             3.9874873822        8.1835917803        6.1902181419
C             5.0150511319        5.9980880018       10.6749880042
H             3.2987811784        8.0176187352        5.3650462718
H             5.7037226314        6.1639919854       11.5000457613
C             3.1964171585       10.7276418194        9.5714998504
C             5.8063310647        3.4539505663        7.2935495594
H             2.2850671033       10.1976431693        9.2376108639
H             6.7174209165        3.9839615053        7.6274954824
C             2.9816217217       11.7412682841       10.5968543412
C             6.0208652877        2.4403301858        6.2682597957
C             3.9143630811       12.7695331714       10.8113248610
C             5.0881793176        1.4121148255        6.0537961079
H             3.6612196685        2.7187446320       10.1716242136
H             5.3413051846       11.4628762366        6.6934865695
C             2.5551575667        3.6075281406       11.7977448986
C             6.4473692053       10.5741091007        5.0673780383
H             3.2637405342        4.4208328248       11.9431592141
H             5.7387739018        9.7607827040        4.9219548344
C             7.0484534660        3.5094510941       12.5874257375
C             1.9540586575       10.6721628849        4.2776879971
C             7.2520696584       12.5868856928       12.4015127310
C             1.7504486930        1.5947129972        4.4635837963
H             6.3816473541       12.4932044960       13.0462774008
H             2.6208681581        1.6884161658        3.8188408926
C             7.4722654463       11.6585580563       11.3897385142
C             1.5302576750        2.5230921997        5.4754004671
H             6.7621794299       10.8512258593       11.2264041489
H             2.2403329024        3.3303885805        5.6387096591
C             3.8446438049        6.4919484762       16.3686475086
C             5.1578671042        7.6896638541        0.4964587048
C             6.8113411739        4.4945880344       13.6898339142
C             2.1911747725        9.6870224663        3.1752770516
F             2.5764205838        6.9809150329       16.2748392201
F             6.4260983086        7.2007056509        0.5902748308
F             4.4508452911        6.7871539404       15.1769589711
F             4.5516723085        7.3944657536        1.6881586438
F             3.7549552018        5.1341935452       16.4357381091
F             5.2475650946        9.0474324697        0.4293798910
F             5.4870770668        4.6427733629       13.9515143767
F             3.5154447275        9.5388461981        2.9135982433
F             7.3086368735        5.7371905833       13.3935118115
F             1.6938822946        8.4444336796        3.4716015496
F             7.4009781623        4.1094800676       14.8622624499
F             1.6015403803       10.0721401632        2.0028499661
O             7.7690470137       15.8615115960        5.5598437754
O             3.4876482710       18.5476153196       11.3053505437
N             5.4998620208       20.5436786427        9.1518144420
N             5.7563568572       13.8657323602        7.7132147497
C             3.8275407354       14.8532272513        2.3001069962
C             7.4284073210       19.5563255328       14.5650131054
H             3.4770713451       15.7710075709        2.7680670058
H             7.7789604545       18.6384496664       14.0970328385
C             3.0633265245       14.2904843822        1.2876027486
C             8.1927279554       20.1189730743       15.5775209072
H             2.1488409344       14.7797327615        0.9624042380
H             9.1071737600       19.6297544661       15.9027074931
C             3.4992433107       13.1136254593        0.6603332812
C             7.7567365895       21.2958777279       16.2047656066
C             4.6832307333       12.4936481101        1.0600363172
C             6.5728633885       21.9158350533       15.8051329897
H             5.0083934606       11.5694057925        0.5871733663
H             6.2476257144       22.8400726706       16.2779372645
C             5.4415989432       13.0643698265        2.0770834006
C             5.8143188914       21.3451369529       14.7879733441
H             6.3580905163       12.5803140393        2.4073274173
H             4.8979621835       21.8291522609       14.4577990260
C             5.0379274398       14.2619207022        2.6987941530
C             6.2181836567       20.1474086086       14.1662702766
C             5.9142765852       14.8342602608        3.7041280947
C             5.3414901573       19.5758869097       13.1613085868
H             6.8410791933       14.2911838882        3.9076281230
H             4.4150611401       20.1182104660       12.9575015928
C             5.6965831724       15.9710039860        4.3976731227
C             5.5598062338       18.4377896156       12.4671627501
H             4.7867495879       16.5450283439        4.2500579843
H             6.4691111049       17.8645762746       12.6150472204
C             6.6645177410       16.4180715678        5.4104524808
C             4.5906854367       17.9918520952       11.4545584884
C             6.2745950490       17.5213212173        6.3227560670
C             4.9815594082       16.8881602332       10.5424741462
C             7.1279736323       17.7581398991        7.4161638543
C             4.1279589031       16.6513114737        9.4488269013
H             8.0053613117       17.1272045818        7.5191393876
H             3.2506834556       17.2822671428        9.3459842327
C             6.8294411466       18.7347321487        8.3431890116
C             4.4266040208       15.6747996296        8.5220128080
H             7.4745216958       18.9069918743        9.2040980313
H             3.7814879877       15.5024871582        7.6609987387
C             5.6776786120       19.5250572500        8.2034321614
C             5.5783094450       14.8844304192        8.6616588643
C             4.8168963260       19.3036497348        7.1120461015
C             6.4391323521       15.1058908962        9.7531465464
H             3.9515444089       19.9482185914        6.9575377973
H             7.3044822334       14.4612555205        9.9075740577
C             5.1142188681       18.2974629982        6.1901269958
C             6.1417836178       16.1119582197       10.6748968581
H             4.4255473686       18.1315590146        5.3650692387
H             6.8304898216       16.2779312648       11.5000687282
C             4.3229399353       20.8415994337        9.5715654406
C             6.9328538415       13.5679081806        7.2936151496
H             3.4118490835       20.3115884947        9.2376185176
H             7.8442038967       14.0979068307        7.6275031361
C             4.1084057123       21.8552208142       10.5968552043
C             7.1476492783       12.5542827159        6.2682606588
C             5.0410906824       22.8834361745       10.8113178921
C             6.2149079189       11.5260178286        6.0537891390
H             4.7879658154       12.8326747634       10.1716274305
H             6.4680513315       21.5768053680        6.6934897864
C             3.6819017947       13.7214408993       11.7977369617
C             7.5741134333       20.6880228594        5.0673701014
H             4.3904960982       14.5347672960       11.9431601656
H             6.8655304658       19.8747171752        4.9219557859
C             8.1752123425       13.6233871151       12.5874260029
C             3.0808175340       20.7860989059        4.2776882625
C             8.3788213070       22.7008370028       12.4015312037
C             2.8772013416       11.7086653072        4.4636022690
H             7.5084028419       22.6071338342       13.0462741074
H             3.7476226459       11.8023455040        3.8188375992
C             8.5990133250       21.7724578003       11.3897145329
C             2.6570055537       12.6369919437        5.4753764858
H             7.8889370976       20.9651624195       11.2264053409
H             3.3670915701       13.4443241407        5.6387108511
C             4.9714038958       16.6058871459       16.3686552952
C             6.2846261951       17.8036025238        0.4964664914
C             7.9380962275       14.6085275337       13.6898369484
C             3.3179298261       19.8009619656        3.1752800858
F             3.7031716914       17.0948453491       16.2748391692
F             7.5528504162       17.3146359671        0.5902747799
F             5.5775976915       16.9010852464       15.1769553562
F             5.6784257089       17.5083970596        1.6881550289
F             4.8817059054       15.2481185303       16.4357351090
F             6.3743157982       19.1613574548        0.4293768909
F             6.6138262725       14.7567038019       13.9515157567
F             4.6421929332       19.6527776371        2.9135996233
F             8.4353887054       15.8511173204       13.3935124504
F             2.8206331265       18.5583604167        3.4716021885
F             8.5277306197       14.2234098368       14.8622640339
F             2.7282928377       20.1860699324        2.0028515501

K_POINTS gamma
