&CONTROL
  calculation = 'relax'
  prefix = '4amp33'
  outdir = './outdir'
  pseudo_dir = '/home/joyeechan1127/q-e-qe-7.2/pp/'
  etot_conv_thr = 5.0D-4
  forc_conv_thr = 5.0D-3
/
&SYSTEM
  a     =  5.64230e+00
  b     =  2.03530e+01
  c     =  1.74919e+01
  cosab =  1.10721e-01
  cosac =  1.27686e-01
  cosbc =  2.45255e-01
  ibrav = 14
  nat   = 188
  ntyp  = 5
  input_dft = 'pbe'
  vdw_corr = 'DFT-D3'
  dftd3_version = 4
  ecutwfc = 60
  ecutrho = 600
/
&ELECTRONS
  conv_thr = 1.0E-7
  mixing_mode = 'local-TF'
  mixing_beta = 0.7
  mixing_ndim = 8
  diagonalization = 'david'
  electron_maxstep = 200
/
&IONS
/

ATOMIC_SPECIES
  O   16.00  O.pbe-n-rrkjus_psl.1.0.0.UPF
  N   14.00  N.pbe-n-rrkjus_psl.1.0.0.UPF
  C   12.00  C.pbe-n-rrkjus_psl.1.0.0.UPF
  H    1.00  H.pbe-rrkjus_psl.1.0.0.UPF
  F   19.00  F.pbe-n-rrkjus_psl.1.0.0.UPF

ATOMIC_POSITIONS {angstrom}
O	6.527181	5.934632	5.444565	1	1	1
O	2.475338	8.246989	11.42055	1	1	1
N	4.333115	10.459601	9.067192	1	1	1
N	4.669403	3.722019	7.797923	1	1	1
C	2.714088	4.776676	2.319628	1	1	1
C	6.288431	9.404945	14.545487	1	1	1
H	2.400758	5.555835	2.716413	1	1	1
H	6.60176	8.625785	14.148701	1	1	1
C	2.008781	4.211409	1.31784	1	1	1
C	6.993737	9.970211	15.547275	1	1	1
H	1.222346	4.613632	1.026495	1	1	1
H	7.780172	9.567988	15.838619	1	1	1
C	2.425949	3.076371	0.73768	1	1	1
C	6.576569	11.10525	16.127434	1	1	1
C	3.556386	2.490509	1.198266	1	1	1
C	5.446133	11.691112	15.666848	1	1	1
H	3.840997	1.684611	0.828752	1	1	1
H	5.161521	12.497009	16.036363	1	1	1
C	4.271043	3.061374	2.181334	1	1	1
C	4.731475	11.120246	14.683781	1	1	1
H	5.052786	2.651454	2.475529	1	1	1
H	3.949733	11.530167	14.389586	1	1	1
C	3.871712	4.222758	2.752893	1	1	1
C	5.130806	9.958863	14.112222	1	1	1
C	4.688077	4.8468	3.734611	1	1	1
C	4.314442	9.33482	13.130504	1	1	1
H	5.526938	4.46332	3.854792	1	1	1
H	3.47558	9.7183	13.010323	1	1	1
C	4.435791	5.865403	4.481567	1	1	1
C	4.566727	8.316217	12.383548	1	1	1
H	3.606146	6.280734	4.421443	1	1	1
H	5.396372	7.900887	12.443672	1	1	1
C	5.42109	6.373984	5.416063	1	1	1
C	3.581428	7.807636	11.449052	1	1	1
C	5.037523	7.454723	6.345162	1	1	1
C	3.964995	6.726898	10.519953	1	1	1
C	5.91421	7.747954	7.338686	1	1	1
C	3.088308	6.433666	9.526429	1	1	1
H	6.7076	7.267402	7.407209	1	1	1
H	2.294919	6.914219	9.457906	1	1	1
C	5.647671	8.730477	8.229164	1	1	1
C	3.354848	5.451144	8.635951	1	1	1
H	6.259018	8.918993	8.902504	1	1	1
H	2.743501	5.262627	7.962611	1	1	1
C	4.499892	9.439054	8.148211	1	1	1
C	4.502626	4.742567	8.716903	1	1	1
C	3.633357	9.151547	7.170035	1	1	1
C	5.369161	5.030074	9.69508	1	1	1
H	2.847589	9.642577	7.090819	1	1	1
H	6.154929	4.539043	9.774295	1	1	1
C	3.888398	8.145467	6.286303	1	1	1
C	5.11412	6.036153	10.578812	1	1	1
H	3.258774	7.934672	5.633522	1	1	1
H	5.743744	6.246948	11.231593	1	1	1
C	3.243442	10.638654	9.603671	1	1	1
C	5.759077	3.542966	7.261444	1	1	1
H	2.534776	10.083854	9.365906	1	1	1
H	6.467742	4.097766	7.499208	1	1	1
C	3.018659	11.645031	10.559923	1	1	1
C	5.98386	2.53659	6.305192	1	1	1
C	3.919714	12.616379	10.796034	1	1	1
C	5.082804	1.565242	6.06908	1	1	1
H	3.567686	2.529233	10.281817	1	1	1
H	5.434833	11.652387	6.583297	1	1	1
C	2.613444	3.433672	11.747227	1	1	1
C	6.389075	10.747948	5.117888	1	1	1
H	3.254694	4.092583	11.87751	1	1	1
H	5.747824	10.089037	4.987605	1	1	1
C	7.13987	3.411924	12.516276	1	1	1
C	1.862649	10.769696	4.348838	1	1	1
C	7.350026	12.578474	12.278478	1	1	1
C	1.652492	1.603146	4.586637	1	1	1
H	6.566347	12.556386	12.778917	1	1	1
H	2.436171	1.625234	4.086198	1	1	1
C	7.555721	11.655636	11.32054	1	1	1
C	1.446798	2.525984	5.544575	1	1	1
H	6.908263	11.001677	11.178502	1	1	1
H	2.094255	3.179943	5.686613	1	1	1
C	3.974938	6.537979	16.5268	1	1	1
C	5.02758	7.643642	0.338314	1	1	1
C	6.956018	4.367253	13.540157	1	1	1
C	2.046501	9.814367	3.324957	1	1	1
F	2.879374	7.011561	16.247008	1	1	1
F	6.123144	7.17006	0.618106	1	1	1
F	4.512867	6.611767	15.429387	1	1	1
F	4.489651	7.569854	1.435727	1	1	1
F	3.755545	5.357419	16.603031	1	1	1
F	5.246974	8.824202	0.262084	1	1	1
F	5.744332	4.582864	13.865485	1	1	1
F	3.258186	9.598756	2.999629	1	1	1
F	7.364473	5.547246	13.293589	1	1	1
F	1.638045	8.634375	3.571525	1	1	1
F	7.507227	4.059431	14.639425	1	1	1
F	1.495292	10.122189	2.225689	1	1	1
O	7.653933	16.048562	5.444565	1	1	1
O	3.60209	18.360919	11.42055	1	1	1
N	5.459867	20.573532	9.067192	1	1	1
N	5.796156	13.835949	7.797923	1	1	1
C	3.84084	14.890606	2.319628	1	1	1
C	7.415183	19.518875	14.545487	1	1	1
H	3.52751	15.669765	2.716413	1	1	1
H	7.728513	18.739715	14.148701	1	1	1
C	3.135533	14.325339	1.31784	1	1	1
C	8.12049	20.084141	15.547275	1	1	1
H	2.349099	14.727562	1.026495	1	1	1
H	8.906924	19.681918	15.838619	1	1	1
C	3.552701	13.190301	0.73768	1	1	1
C	7.703322	21.21918	16.127434	1	1	1
C	4.683138	12.604439	1.198266	1	1	1
C	6.572885	21.805042	15.666848	1	1	1
H	4.96775	11.798541	0.828752	1	1	1
H	6.288273	22.610939	16.036363	1	1	1
C	5.397796	13.175304	2.181334	1	1	1
C	5.858227	21.234177	14.683781	1	1	1
H	6.179538	12.765384	2.475529	1	1	1
H	5.076485	21.644097	14.389586	1	1	1
C	4.998465	14.336688	2.752893	1	1	1
C	6.257558	20.072793	14.112222	1	1	1
C	5.814829	14.96073	3.734611	1	1	1
C	5.441194	19.44875	13.130504	1	1	1
H	6.653691	14.57725	3.854792	1	1	1
H	4.602332	19.83223	13.010323	1	1	1
C	5.562544	15.979333	4.481567	1	1	1
C	5.693479	18.430147	12.383548	1	1	1
H	4.732899	16.394664	4.421443	1	1	1
H	6.523124	18.014817	12.443672	1	1	1
C	6.547843	16.487914	5.416063	1	1	1
C	4.70818	17.921567	11.449052	1	1	1
C	6.164276	17.568653	6.345162	1	1	1
C	5.091747	16.840828	10.519953	1	1	1
C	7.040962	17.861884	7.338686	1	1	1
C	4.215061	16.547596	9.526429	1	1	1
H	7.834352	17.381332	7.407209	1	1	1
H	3.421671	17.028149	9.457906	1	1	1
C	6.774423	18.844407	8.229164	1	1	1
C	4.4816	15.565074	8.635951	1	1	1
H	7.38577	19.032924	8.902504	1	1	1
H	3.870253	15.376557	7.962611	1	1	1
C	5.626645	19.552984	8.148211	1	1	1
C	5.629378	14.856497	8.716903	1	1	1
C	4.76011	19.265477	7.170035	1	1	1
C	6.495913	15.144004	9.69508	1	1	1
H	3.974342	19.756507	7.090819	1	1	1
H	7.281681	14.652973	9.774295	1	1	1
C	5.01515	18.259398	6.286303	1	1	1
C	6.240873	16.150083	10.578812	1	1	1
H	4.385526	18.048603	5.633522	1	1	1
H	6.870497	16.360878	11.231593	1	1	1
C	4.370194	20.752584	9.603671	1	1	1
C	6.885829	13.656896	7.261444	1	1	1
H	3.661528	20.197784	9.365906	1	1	1
H	7.594495	14.211696	7.499208	1	1	1
C	4.145411	21.758961	10.559923	1	1	1
C	7.110612	12.65052	6.305192	1	1	1
C	5.046466	22.730309	10.796034	1	1	1
C	6.209557	11.679172	6.06908	1	1	1
H	4.694438	12.643164	10.281817	1	1	1
H	6.561585	21.766317	6.583297	1	1	1
C	3.740196	13.547602	11.747227	1	1	1
C	7.515827	20.861879	5.117888	1	1	1
H	4.381446	14.206513	11.87751	1	1	1
H	6.874577	20.202967	4.987605	1	1	1
C	8.266622	13.525854	12.516276	1	1	1
C	2.989401	20.883626	4.348838	1	1	1
C	8.476778	22.692404	12.278478	1	1	1
C	2.779245	11.717077	4.586637	1	1	1
H	7.6931	22.670316	12.778917	1	1	1
H	3.562923	11.739164	4.086198	1	1	1
C	8.682473	21.769566	11.32054	1	1	1
C	2.57355	12.639914	5.544575	1	1	1
H	8.035015	21.115608	11.178502	1	1	1
H	3.221008	13.293873	5.686613	1	1	1
C	5.101691	16.651909	16.5268	1	1	1
C	6.154332	17.757572	0.338314	1	1	1
C	8.08277	14.481183	13.540157	1	1	1
C	3.173253	19.928297	3.324957	1	1	1
F	4.006126	17.125491	16.247008	1	1	1
F	7.249897	17.28399	0.618106	1	1	1
F	5.639619	16.725697	15.429387	1	1	1
F	5.616404	17.683784	1.435727	1	1	1
F	4.882297	15.471349	16.603031	1	1	1
F	6.373726	18.938132	0.262084	1	1	1
F	6.871085	14.696794	13.865485	1	1	1
F	4.384938	19.712687	2.999629	1	1	1
F	8.491226	15.661176	13.293589	1	1	1
F	2.764797	18.748305	3.571525	1	1	1
F	8.633979	14.173361	14.639425	1	1	1
F	2.622044	20.236119	2.225689	1	1	1

K_POINTS gamma
