&CONTROL
  calculation = 'scf'
  prefix = '4amp15'
  outdir = './outdir'
  pseudo_dir = '/home/cyk/q-e-qe-7.2/pp/'
/
&SYSTEM
  ibrav = 0
  nat = 196
  ntyp = 4
  occupations = 'fixed'
  nbnd = 285
  input_dft = 'pbe'
  ecutwfc = 60
  ecutrho = 600
  vdw_corr = 'DFT-D3'
  dftd3_version = 4
  
/
&ELECTRONS
  conv_thr = 1.0E-10
  mixing_mode = 'local-TF'
  mixing_beta = 0.7
  mixing_ndim = 8
  diagonalization = 'david'
  electron_maxstep = 128
/

ATOMIC_SPECIES
  O   16.00  O.pbe-n-rrkjus_psl.1.0.0.UPF
  N   14.00  N.pbe-n-rrkjus_psl.1.0.0.UPF
  C   12.00  C.pbe-n-rrkjus_psl.1.0.0.UPF
  H    1.00  H.pbe-rrkjus_psl.1.0.0.UPF

CELL_PARAMETERS {angstrom}
       16.29700000     0.00000000     0.00000000
        0.00000000     5.63040000     0.00000000
      -15.27928516     0.00000000    19.56081507

ATOMIC_POSITIONS {angstrom}
O	-4.575598235	3.836507424	9.373791911
O	0.043503378	4.31321955	10.84744605
O	3.806647706	5.311218747	12.00513345
N	-7.282673543	2.732177892	12.81230199
C	-1.752979847	1.461232083	12.98372303
H	-2.336175405	2.322664146	13.62886178
C	-0.971698746	0.69775808	13.54042449
H	-0.774297766	0.829954609	14.74997473
C	-0.378167021	5.442518666	12.93598342
H	0.403575565	4.696458509	13.50680288
C	-0.516155958	5.213852447	11.64526617
C	-1.380985426	0.452110511	11.15328227
H	-1.575258795	0.310799343	9.950188983
C	-2.055441448	1.435741917	11.69788419
C	-2.875010893	2.270243318	11.10760586
H	-3.088884783	2.031199929	9.919723948
C	-3.581802225	3.325622474	11.33648499
H	-3.400728315	3.612764262	12.49797204
C	-4.42112228	4.118288165	10.66685577
C	-5.149669026	5.202744069	11.2028788
C	-5.97572481	0.354732771	10.53903272
H	-6.067291189	0.06631345	9.34348339
C	-6.629687297	1.275953743	10.97928082
H	-7.356357828	1.938467072	10.23257545
C	-6.646755035	1.69887752	12.23676523
C	-5.793627828	0.926852316	12.8979355
H	-5.679498467	1.243925116	14.0780873
C	-5.151808931	5.626653997	12.44736446
H	-4.416925241	4.988782473	13.19914205
C	-8.466897054	3.045401963	12.48581181
H	-8.956571838	2.247621813	11.64981736
C	-9.280409479	4.026448599	12.84150125
C	5.818647551	4.298510486	12.3823126
H	5.412844424	3.483629527	11.55175437
C	4.988307678	5.262025692	12.63231149
C	5.503403277	0.426122191	13.54062765
H	4.805839475	1.370419409	13.87827472
C	-9.673403061	0.253088396	14.0447239
H	-9.280401493	1.053943441	14.89879249
C	-8.95628106	4.956953628	13.72891817
H	-7.845342754	4.816894714	14.22517234
C	0.887358711	3.484760783	11.43236443
H	1.335880954	2.746266468	10.69331864
H	0.436749469	2.828354103	12.24038104
H	1.782815166	3.9680402	11.91923541
C	3.144960066	0.811606242	12.1637361
H	2.209331142	0.851684945	11.52414387
H	3.720839639	1.745786303	11.87160497
H	2.780278367	1.012772683	13.21118132
O	13.23295565	1.021307424	0.406615619
O	-6.665431108	1.49801955	18.49377655
O	-10.42857545	2.496018747	17.33608915
N	0.660745803	5.547377892	16.52892061
C	-4.868947893	4.276432083	16.35749957
H	-4.285752335	5.137864146	15.71236082
C	-5.650228984	3.51295808	15.80079811
H	-5.847629974	3.645154609	14.59124787
C	-6.24376072	2.627318666	16.40523917
H	-7.025503305	1.881258509	15.83441972
C	-6.105771782	2.398652447	17.69595643
C	-5.240942304	3.267310511	18.18794032
H	-5.046668945	3.125999343	19.39103362
C	-4.566486292	4.250941917	17.64333841
C	-3.746916838	5.085443318	18.23361674
H	-3.533042947	4.846399929	19.42149865
C	-3.040125515	0.510422474	18.00473761
H	-3.221199425	0.797564262	16.84325056
C	-2.20080546	1.303088165	18.67436683
C	-1.472258714	2.387544069	18.1383438
C	-0.64620293	3.169932771	18.80218988
H	14.72464861	2.88151345	0.436924141
C	0.007759557	4.091153743	18.36194178
H	0.734430098	4.753667072	19.10864715
C	0.024827295	4.51407752	17.10445737
C	-0.828299912	3.742052316	16.4432871
H	-0.942429263	4.059125116	15.26313529
C	-1.470118809	2.811453997	16.89385814
H	-2.205002499	2.173582473	16.14208055
C	1.844969314	0.230201963	16.85541079
H	2.334644098	5.062821813	17.69140523
C	2.658481739	1.211248599	16.49972135
C	-12.44057529	1.483310486	16.95891
H	-12.03477216	0.668429527	17.78946822
C	-11.61023542	2.446825692	16.70891111
C	-12.12533102	3.241322191	15.80059495
H	-11.42776721	4.185619409	15.46294788
C	3.051475321	3.068288396	15.29649869
H	2.658473753	3.869143441	14.44243011
C	2.33435332	2.141753628	15.61230443
H	1.223415014	2.001694714	15.11605025
C	-7.509286441	0.669560783	17.90885817
H	-7.957808694	-0.068933532	18.64790396
H	-7.058677209	0.013154103	17.10084156
H	-8.404742896	1.1528402	17.42198719
C	-9.766887806	3.626806242	17.1774865
H	-8.831258882	3.666884945	17.81707873
H	-10.34276738	4.560986303	17.46961763
H	-9.402206107	3.827972683	16.13004127
O	5.593313075	1.793892576	10.18702315
O	0.974211462	1.31718045	8.713369013
O	-2.788932866	0.319181253	7.555681625
N	8.300388383	2.898222109	6.748513066
C	2.770694687	4.169167917	6.57709204
H	3.353890245	3.307735854	5.931953288
C	1.989413586	4.93264192	6.02039057
H	1.792012606	4.800445391	4.810840337
C	1.395881861	0.187881334	6.624831642
H	0.614139275	0.933941491	6.054012177
C	1.533870798	0.416547553	7.915548899
C	2.398700266	5.178289489	8.407532788
H	2.592973635	5.319600657	9.610626087
C	3.073156288	4.194658083	7.862930881
C	3.892725733	3.360156682	8.453209215
H	4.106599633	3.599200071	9.641091122
C	4.599517065	2.304777526	8.224330079
H	4.418443155	2.017635738	7.06284302
C	5.43883712	1.512111835	8.893959298
C	6.167383866	0.427655931	8.357936269
C	6.99343965	5.275667229	9.021782346
H	7.085006029	5.56408655	10.21733168
C	7.647402137	4.354446257	8.581534252
H	8.374072668	3.691932928	9.328239623
C	7.664469875	3.93152248	7.324049839
C	6.811342668	4.703547684	6.662879568
H	6.697213317	4.386474884	5.48272776
C	6.169523771	0.003746003	7.113450599
H	5.434640081	0.641617527	6.361673018
C	9.484611894	2.584998037	7.075003248
H	9.974286678	3.382778187	7.910997697
C	10.29812432	1.603951401	6.719313817
C	-4.800932711	1.331889514	7.178502471
H	-4.395129584	2.146770473	8.00906069
C	-3.970592838	0.368374308	6.928503567
C	-4.485688437	5.204277809	6.020187406
H	-3.788124625	4.259980591	5.682540349
C	10.6911179	5.377311604	5.516091159
H	10.29811633	4.576456559	4.662022577
C	9.9739959	0.673446372	5.831896891
H	8.863057594	0.813505286	5.335642719
C	0.130356139	2.145639217	8.128450636
H	-0.318166114	2.884133532	8.867496426
H	0.580965371	2.802045897	7.320434032
H	-0.765100316	1.6623598	7.641579658
C	-2.127245226	4.818793758	7.397078971
H	-1.191616302	4.778715055	8.036671188
H	-2.703124799	3.884613697	7.689210102
H	-1.762563527	4.617627317	6.349633742
O	-12.21524081	4.609092576	19.15419944
O	7.683145958	4.13238045	1.067038517
O	11.44629029	3.134381253	2.224725905
N	0.356969037	0.083022109	3.031894464
C	5.886662733	1.353967917	3.2033155
H	5.303467175	0.492535854	3.848454252
C	6.667943834	2.11744192	3.76001696
H	6.865344814	1.985245391	4.969567203
C	7.26147556	3.003081334	3.155575889
H	8.043218145	3.749141491	3.726395353
C	7.123486622	3.231747553	1.864858641
C	6.258657154	2.363089489	1.372874743
H	6.064383785	2.504400657	0.169781443
C	5.584201132	1.379458083	1.917476649
C	4.764631688	0.544956682	1.327198326
H	4.550757787	0.784000071	0.139316418
C	4.057840355	5.119977526	1.556077461
H	4.238914265	4.832835738	2.71756451
C	3.2185203	4.327311835	0.886448232
C	2.489973554	3.242855931	1.422471261
C	1.66391777	2.460467229	0.758625184
H	-13.70693377	2.74888655	19.12389092
C	1.009955283	1.539246257	1.198873288
H	0.283284752	0.876732928	0.452167907
C	0.992887545	1.11632248	2.456357691
C	1.846014752	1.888347684	3.117527973
H	1.960144113	1.571274884	4.29767977
C	2.487833649	2.818946003	2.666956931
H	3.222717339	3.456817527	3.418734512
C	-0.827254474	5.400198037	2.705404282
H	-1.316929258	0.567578187	1.869409833
C	-1.640766899	4.419151401	3.061093713
C	13.45829013	4.147089514	2.60190507
H	13.052487	4.961970473	1.77134684
C	12.62795026	3.183574308	2.851903963
C	13.14304586	2.389077809	3.760220124
H	12.44548206	1.444780591	4.097867192
C	-2.033760481	2.562111604	4.264316371
H	-1.640758913	1.761256559	5.118384953
C	-1.31663848	3.488646372	3.948510639
H	-0.205700174	3.628705286	4.444764811
C	8.527001281	4.960839217	1.651956894
H	8.975523534	5.699333532	0.912911114
H	8.076392049	5.617245897	2.459973498
H	9.422457736	4.4775598	2.138827882
C	10.78460265	2.003593758	2.383328559
H	9.848973722	1.963515055	1.743736342
H	11.36048222	1.069413697	2.091197438
H	10.41992095	1.802427317	3.430773788

K_POINTS gamma
