&CONTROL
  calculation = 'scf'
  prefix = '4amp15'
  outdir = './outdir'
  pseudo_dir = '/home/cyk/q-e-qe-7.2/pp/'
/
&SYSTEM
  ibrav = 0
  nat = 196
  ntyp = 4
  occupations = 'fixed'
  nbnd = 285
  input_dft = 'pbe'
  ecutwfc = 60
  ecutrho = 600
  vdw_corr = 'DFT-D3'
  dftd3_version = 4
  
/
&ELECTRONS
  conv_thr = 1.0E-7
  mixing_mode = 'local-TF'
  mixing_beta = 0.7
  mixing_ndim = 8
  diagonalization = 'david'
  electron_maxstep = 128
/

ATOMIC_SPECIES
  O   16.00  O.pbe-n-rrkjus_psl.1.0.0.UPF
  N   14.00  N.pbe-n-rrkjus_psl.1.0.0.UPF
  C   12.00  C.pbe-n-rrkjus_psl.1.0.0.UPF
  H    1.00  H.pbe-rrkjus_psl.1.0.0.UPF

CELL_PARAMETERS {angstrom}
       16.29700000     0.00000000     0.00000000
        0.00000000     5.63040000     0.00000000
      -15.27928516     0.00000000    19.56081507

ATOMIC_POSITIONS {angstrom}
O	-4.484042188	3.935890282	9.276760762
O	0.023490926	4.092812035	10.85678561
O	3.662077492	5.298640431	12.05792643
N	-7.300086709	2.780148075	12.89019624
C	-1.752535663	1.534808144	13.02610665
H	-2.197411637	2.366935127	13.56721508
C	-0.907394366	0.654482351	13.67577794
H	-0.663010805	0.788339674	14.72970975
C	-0.302960947	5.214283334	13.00186025
H	0.40317591	4.581776141	13.53045769
C	-0.581661813	5.016071968	11.64849103
C	-1.506392491	0.222744378	10.99832273
H	-1.71358448	0.064755312	9.943164066
C	-2.055890679	1.330853189	11.6547179
C	-2.87775924	2.227441418	10.87806781
H	-3.036570381	1.95890008	9.832699893
C	-3.448936233	3.365468657	11.33489637
H	-3.312595424	3.651416419	12.3724698
C	-4.340181842	4.172383906	10.49386042
C	-5.082949704	5.27711256	11.13908941
C	-5.910140166	0.45664129	10.34318055
H	-5.967345159	0.238792507	9.278058856
C	-6.647102832	1.483946321	10.90178433
H	-7.288363363	2.098128021	10.27513362
C	-6.573624594	1.753417097	12.28338178
C	-5.719052726	0.968141037	13.07711359
H	-5.640785772	1.179370702	14.14118071
C	-5.008567943	5.553803837	12.51936635
H	-4.380009843	4.954330115	13.17180586
C	-8.512519372	2.984315936	12.49711312
H	-9.000038465	2.317480464	11.76830532
C	-9.327173746	4.100422061	12.9500399
C	5.698151929	4.211456332	12.37865221
H	5.364018213	3.454793429	11.66879514
C	4.877785234	5.291515766	12.69076074
C	5.302822016	0.630396666	13.60137996
H	4.675234714	1.471746076	13.87971442
C	-9.714988355	0.512582285	14.17175698
H	-9.389847253	1.275415808	14.87812018
C	-8.878615193	5.084858471	13.85447036
H	-7.884234211	5.001654824	14.28516504
C	1.022136208	3.284253345	11.48610291
H	1.415580439	2.645159235	10.69609685
H	0.569430444	2.675884472	12.28644126
H	1.82943051	3.904370393	11.89665335
C	2.856089711	0.838180517	12.21424893
H	1.977085672	0.677768803	11.58582402
H	3.401674188	1.731724874	11.8682491
H	2.534220011	0.970708301	13.25578694
O	13.14139961	1.120690282	0.503646768
O	-6.645418656	1.277612035	18.48443699
O	-10.28400523	2.483440431	17.28329617
N	0.678158969	5.595348075	16.45102636
C	-4.869392077	4.350008144	16.31511595
H	-4.424516103	5.182135127	15.77400752
C	-5.714533364	3.469682351	15.66544466
H	-5.958916935	3.603539674	14.61151285
C	-6.318966793	2.399083334	16.33936234
H	-7.02510365	1.766576141	15.81076491
C	-6.040265927	2.200871968	17.69273157
C	-5.115535239	3.037944378	18.34289986
H	-4.90834326	2.879955312	19.39805853
C	-4.566037061	4.146053189	17.6865047
C	-3.74416849	5.042641418	18.46315479
H	-3.585357349	4.77410008	19.50852271
C	-3.172991507	0.550268657	18.00632623
H	-3.309332317	0.836216419	16.9687528
C	-2.281745899	1.357183906	18.84736218
C	-1.538978036	2.46191256	18.20213319
C	-0.711787574	3.27184129	18.99804205
H	14.62470258	3.053992507	0.502348674
C	0.025175092	4.299146321	18.43943827
H	0.666435633	4.913328021	19.06608898
C	-0.048303146	4.568617097	17.05784082
C	-0.902875014	3.783341037	16.26410901
H	-0.981141958	3.994570702	15.20004188
C	-1.613359797	2.738603837	16.82185625
H	-2.241917897	2.139130115	16.16941674
C	1.890591632	0.169115936	16.84410948
H	2.378110725	5.132680464	17.57291727
C	2.705246006	1.285222061	16.3911827
C	-12.32007967	1.396256332	16.96257039
H	-11.98594595	0.639593429	17.67242745
C	-11.49971297	2.476315766	16.65046186
C	-11.92474976	3.445596666	15.73984264
H	-11.29716244	4.286946076	15.46150818
C	3.093060615	3.327782285	15.16946561
H	2.767919513	4.090615808	14.46310242
C	2.256687453	2.269658471	15.48675224
H	1.262306471	2.186454824	15.05605755
C	-7.644063938	0.469053345	17.85511969
H	-8.037508179	-0.170040765	18.64512575
H	-7.191358184	-0.139315528	17.05478134
H	-8.45135824	1.089170393	17.44456925
C	-9.478017451	3.653380517	17.12697367
H	-8.599013412	3.492968803	17.75539858
H	-10.02360193	4.546924874	17.4729735
H	-9.156147751	3.785908301	16.08543565
O	5.501757028	1.694509718	10.2840543
O	0.994223914	1.537587965	8.704029454
O	-2.644362652	0.331759569	7.502888644
N	8.317801549	2.850251925	6.670618817
C	2.770250503	4.095591856	6.534708419
H	3.215126477	3.263464873	5.993599988
C	1.925109206	4.975917649	5.885037118
H	1.680725645	4.842060326	4.831105317
C	1.320675787	0.416116666	6.558954813
H	0.61453893	1.048623859	6.03035737
C	1.599376653	0.614328032	7.912324041
C	2.524107331	5.407655622	8.562492329
H	2.73129932	5.565644688	9.617651004
C	3.073605519	4.299546811	7.906097172
C	3.89547408	3.402958582	8.682747259
H	4.054285231	3.67149992	9.728115177
C	4.466651073	2.264931343	8.225918701
H	4.330310264	1.978983581	7.188345263
C	5.357896682	1.458016094	9.066954654
C	6.100664544	0.35328744	8.421725664
C	6.927855006	5.17375871	9.217634519
H	6.985059999	5.391607494	10.28275621
C	7.664817672	4.146453679	8.659030736
H	8.306078203	3.532271979	9.285681453
C	7.591339434	3.876982903	7.277433289
C	6.736767566	4.662258963	6.483701478
H	6.658500622	4.451029299	5.419634353
C	6.026282783	0.076596163	7.041448708
H	5.397724683	0.676069885	6.389009214
C	9.530234212	2.646084064	7.063701936
H	10.0177533	3.312919536	7.792509743
C	10.34488859	1.529977939	6.610775171
C	-4.680437089	1.418943668	7.182162859
H	-4.346303373	2.175606571	7.89201992
C	-3.860070394	0.338884234	6.870054324
C	-4.285107176	5.000003334	5.959435099
H	-3.657519864	4.158653924	5.681100647
C	10.73270319	5.117817715	5.389058082
H	10.40756209	4.354984192	4.682694887
C	9.896330033	0.545541529	5.7063447
H	8.901949051	0.628745176	5.275650021
C	-0.004421358	2.346146655	8.074712162
H	-0.397865599	2.985240765	8.864718222
H	0.448284396	2.954515528	7.27437381
H	-0.81171566	1.726029607	7.664161724
C	-1.838374871	4.792219483	7.346566136
H	-0.959370832	4.952631197	7.974991037
H	-2.383959348	3.898675126	7.692565973
H	-1.516505171	4.659691699	6.305028122
O	-12.12368477	4.509709718	19.05716829
O	7.663133506	4.352787965	1.076378076
O	11.30172007	3.146959569	2.277518886
N	0.339555871	0.035051925	3.109788713
C	5.887106917	1.280391856	3.245699121
H	5.442230943	0.448264873	3.786807552
C	6.732248214	2.160717649	3.895370412
H	6.976631775	2.026860326	4.949302223
C	7.336681633	3.231316666	3.221452717
H	8.04281849	3.863823859	3.75005016
C	7.057980767	3.429528032	1.868083499
C	6.133250089	2.592455622	1.217915201
H	5.9260581	2.750444688	0.162756526
C	5.583751901	1.484346811	1.874310359
C	4.76188334	0.587758582	1.097660281
H	4.603072189	0.85629992	0.052292363
C	4.190706347	5.080131343	1.554488839
H	4.327047157	4.794183581	2.592062267
C	3.299460739	4.273216094	0.713452876
C	2.556692876	3.16848744	1.358681867
C	1.729502414	2.35855871	0.562773011
H	-13.60698774	2.576407494	19.05846639
C	0.992539748	1.331253679	1.121376804
H	0.351279217	0.717071979	0.494726077
C	1.066017986	1.061782903	2.502974241
C	1.920589854	1.847058963	3.296706062
H	1.998856808	1.635829299	4.360773177
C	2.631074637	2.891796163	2.738958822
H	3.259632737	3.491269885	3.391398316
C	-0.872876792	5.461284064	2.716705594
H	-1.360395885	0.497719536	1.987897787
C	-1.687531166	4.345177939	3.169632359
C	13.33779451	4.234143668	2.598244681
H	13.00366079	4.990806571	1.88838761
C	12.51742781	3.154084234	2.910353206
C	12.9424646	2.184803334	3.820972431
H	12.31487729	1.343453924	4.099306893
C	-2.075345775	2.302617715	4.391349448
H	-1.750204673	1.539784192	5.097712643
C	-1.238972613	3.360741529	4.07406283
H	-0.244591631	3.443945176	4.504757509
C	8.661778778	5.161346655	1.705695368
H	9.055223019	5.800440765	0.915689318
H	8.209073024	5.769715528	2.50603372
H	9.46907308	4.541229607	2.116245816
C	10.49573229	1.977019483	2.433841394
H	9.616728252	2.137431197	1.805416493
H	11.04131677	1.083475126	2.087841567
H	10.17386259	1.844491699	3.475379408

K_POINTS gamma
