&CONTROL
  calculation = 'scf'
  prefix = '4amp33pbeiso'
  outdir = './outdir'
  pseudo_dir = '/home/cyk/q-e-qe-7.2/pp/'
/
&SYSTEM
  ibrav = 0
  nat = 47
  ntyp = 5
  input_dft = 'pbe'
  occupations = 'fixed'
  nbnd = 80
  assume_isolated	= 'mt'
  ecutwfc = 50
  ecutrho = 500
  vdw_corr = 'DFT-D3'
  dftd3_version = 4
/
&ELECTRONS
  conv_thr = 1.0E-7
  mixing_mode = 'local-TF'
  mixing_beta = 0.7
  mixing_ndim = 8
  diagonalization = 'david'
  electron_maxstep = 200
/

ATOMIC_SPECIES
  O   16.00  O.pbe-n-rrkjus_psl.1.0.0.UPF
  N   14.00  N.pbe-n-rrkjus_psl.1.0.0.UPF
  C   12.00  C.pbe-n-rrkjus_psl.1.0.0.UPF
  H    1.00  H.pbe-rrkjus_psl.1.0.0.UPF
  F   19.00  F.pbe-n-rrkjus_psl.1.0.0.UPF

CELL_PARAMETERS {angstrom}
       17.00000000     0.00000000     0.00000000
        0.00000000     26.0000000     0.00000000
        0.00000000     0.00000000    26.00000000

ATOMIC_POSITIONS {angstrom}
  O   6.29565427154662      5.44353153824131      5.82866711030938
  N   4.28036405499204     10.49784058940523      9.07275649652403
  C   2.66903446188569      4.71566561919809      2.19405214988985
  H   2.25942230181144      5.57878415987959      2.70238739833342
  C   2.00687726229886      4.20839264893694      1.09180532414980
  H   1.09022939250585      4.66668589680649      0.74626274999359
  C   2.51571593082683      3.09994392796751      0.42718327116523
  C   3.68547746583998      2.49847537767159      0.86930305867663
  H   4.07401900477581      1.62883891641781      0.35539089682839
  C   4.34328664698435      3.01143144894804      1.97200005087987
  H   5.25651040794355      2.54331568553995      2.31894601521826
  C   3.85080140266643      4.12817169493501      2.65156654371980
  C   4.60346962770207      4.62852716240361      3.80236159008052
  H   5.51001191821405      4.08496545043923      4.05383262635359
  C   4.32162882903807      5.68172690922625      4.57027235620392
  H   3.45215675785799      6.30041278286337      4.39429794585725
  C   5.25943411938721      6.05495469373907      5.66173263690365
  C   4.93274683713955      7.22282968499528      6.53134647978106
  C   5.97928226469768      7.80957802454205      7.24671721719120
  H   6.97161322095610      7.39376956416734      7.13234884948824
  C   5.75355809348453      8.89569360561143      8.06361911264048
  H   6.56421460444265      9.37527512052294      8.59666575070885
  C   4.45861272431028      9.39128060710926      8.23087979428824
  C   3.40689793179558      8.80620681919089      7.52757282565683
  H   2.40683395534192      9.20984403466775      7.62589789139844
  C   3.64824799029231      7.73900066366275      6.67626118385421
  H   2.81528456443469      7.29953282237935      6.14301912963473
  C   3.35190758018920     10.49952815076218      9.93330100836896
  H   2.69321681900497      9.63332594000105     10.07361900445658
  C   3.10797077385542     11.64985492652009     10.81591499802010
  C   3.88322878976370     12.80523351869898     10.71575362807030
  H   4.66629578488527     12.83968980667839      9.97013458816791
  C   3.64676513591223     13.87556304634132     11.55540950603842
  H   4.24120793023191     14.77600630046436     11.47678206254516
  C   2.63126486991589     13.80017564696701     12.50332759876857
  C   1.85189263373033     12.65794763006416     12.60984519447089
  H   1.05958459989872     12.61193508153968     13.34501003307025
  C   2.09311378542806     11.58570734197617     11.76634207187712
  H   1.48721317249354     10.69046497862496     11.84699451432385
  C   1.83305078783449      2.56085971486169     -0.79342300524645
  C   2.41485639520565     14.93884308940553     13.45556142868841
  F   0.56733132357965      2.99337752568797     -0.90012753012771
  F   2.46819586436350      2.92620707243139     -1.92152895827074
  F   1.79997382576750      1.21763865946664     -0.78976987561276
  F   1.13013212552690     15.04045856434208     13.83189995082956
  F   2.77182336773618     16.11837327168592     12.92387445835248
  F   3.13868839150446     14.78443428401159     14.57833286747901

K_POINTS gamma
