&CONTROL
  calculation = 'scf'
  prefix = '4amp34'
  outdir = './outdir'
  pseudo_dir = '/home/cyk/q-e-qe-7.2/pp/'
/
&SYSTEM
  a     =  2.07553e+01
  b     =  5.76339e+00
  c     =  1.71143e+01
  cosac = -1.58190e-02
  ibrav = -12
  nat   = 196
  ntyp  = 5
  input_dft = 'pbe'
  vdw_corr = 'DFT-D3'
  dftd3_version = 4
  ecutwfc = 70
  ecutrho = 840
  occupations = 'fixed'
  nbnd = 285 
/
&ELECTRONS
  conv_thr = 1.0E-7
  mixing_mode = 'local-TF'
  mixing_beta = 0.7
  mixing_ndim = 8
  diagonalization = 'david'
  electron_maxstep = 200
/

ATOMIC_SPECIES
  O   16.00  O.pbe-n-rrkjus_psl.1.0.0.UPF
  N   14.00  N.pbe-n-rrkjus_psl.1.0.0.UPF
  C   12.00  C.pbe-n-rrkjus_psl.1.0.0.UPF
  H    1.00  H.pbe-rrkjus_psl.1.0.0.UPF
  F   19.00  F.pbe-n-rrkjus_psl.1.0.0.UPF

ATOMIC_POSITIONS {angstrom}
O             7.7596667071        0.7396433198        7.8295793003
O            12.8602672929        3.6213383198        0.7264996997
O            12.7249022929        5.0237466802        9.2825786997
O             7.6243017071        2.1420516802       16.3856593003
O             1.4204069777       -0.0067918924        5.4416111242
O            19.1995280223        2.8749031076        3.1144688758
O            19.0641620223        5.7701818924       11.6705478758
O             1.2850409777        2.8884868924       13.9976901242
O            16.5419418402        5.2287254327       15.8651631185
O             3.8072621598        2.3470304327        9.8030748815
O             3.9426271598        0.5346645673        1.2469948815
O            16.6773068402        3.4163595673        7.3090841185
N            11.7687507813        2.9869275882       12.2014404846
N             8.5804522187        0.1052325882       13.4667965154
N             8.7158172187        2.7764624118        4.9107175154
N            11.9041167813        5.6581574118        3.6453614846
C             4.4755938420        4.7023143745        7.2014736506
C            16.1443411580        1.8206193745        1.3546053494
C            16.0089751580        1.0610756255        9.9106843494
C             4.3402278420        3.9427706255       15.7575526506
H             5.1880494399        5.0963135612        7.9231133963
H            15.4318855601        2.2146185612        0.6329656037
H            15.2965195601        0.6670764388        9.1890456037
H             5.0526834399        3.5487714388       16.4791923963
C             3.3703591496        5.4699583230        6.8687132155
C            17.2495758504        2.5882633230        1.6873667845
C            17.1142098504        0.2934316770       10.2434457845
C             3.2349931496        3.1751266770       15.4247922155
H             3.1747657374        0.6547386616        7.3606811465
H            17.4451692626        3.5364336616        1.1953978535
H            17.3098032626        5.1086513384        9.7514768535
H             3.0393997374        2.2269563384       15.9167601465
C             2.4951394189        4.9739788286        5.8957753736
C            18.1247955811        2.0922838286        2.6603046264
C            17.9894295811        0.7894111714       11.2163836264
C             2.3597734189        3.6711061714       14.4518543736
C             2.7114100310        3.7590770776        5.2573250996
C            17.9085239690        0.8773820776        3.2987539004
C            17.7731589690        2.0043129224       11.8548329004
C             2.5760450310        4.8860079224       13.8134050996
H             2.0205785999        3.4281641036        4.4861215612
H            18.5993554001        0.5464691036        4.0699584388
H            18.4639904001        2.3352258964       12.6260374388
H             1.8852125999        5.2169208964       13.0422005612
C             3.8316369571        3.0046449012        5.6018720556
C            16.7882970429        0.1229499012        2.9542079444
C            16.6529310429        2.7587450988       11.5102869444
C             3.6962719571        5.6404400988       14.1579510556
H             4.0404687834        2.0676900580        5.0843265792
H            16.5794652166        4.9493850580        3.4717524208
H            16.4441002166        3.6956999420       12.0278314208
H             3.9051037834        0.8140049420       13.6404065792
C             4.7117324836        3.4537133327        6.6051856498
C            15.9082015164        0.5720183327        1.9508943502
C            15.7728355164        2.3096766673       10.5069733502
C             4.5763674836        5.1913716673       15.1612646498
C             5.7942437037        2.5898987491        7.0305850791
C            14.8256912963        5.4715937491        1.5254949209
C            14.6903252963        3.1734912509       10.0815739209
C             5.6588777037        0.2917962509       15.5866640791
H             5.9119803354        1.6490307564        6.4921534074
H            14.7079546646        4.5307257564        2.0639255926
H            14.5725886646        4.1143592436       10.6200045926
H             5.7766143354        1.2326642436       15.0482334074
C             6.6285456644        2.8122283817        8.0667205353
C            13.9913893356       -0.0694666183        0.4893584647
C            13.8560233356        2.9511616183        9.0454374647
C             6.4931796644        5.8328566183       16.6228005353
H             6.5512872553        3.7237053822        8.6506600285
H            14.0686467447        0.8420103822       -0.0945810285
H            13.9332817447        2.0396846178        8.4614989715
H             6.4159222553        4.9213796178       17.2067390285
C             7.6771613824        1.8420298638        8.4068341816
C            12.9427726176        4.7237248638        0.1492458184
C            12.8074066176        3.9213601362        8.7053248184
C             7.5417963824        1.0396651362       16.9629131816
C             8.6715296271        2.2124809266        9.4406042503
C            11.6776733729        5.0941759266       16.2276337497
C            11.8130393729        3.5509090734        7.6715547497
C             8.8068956271        0.6692140734        0.8845242503
C             9.7314951967        1.3164884499        9.6502848130
C            10.6177088033        4.1981834499       16.0179521870
C            10.7530738033        4.4469015501        7.4618731870
C             9.8668601967        1.5652065501        1.0942058130
H             9.7360026608        0.4026545940        9.0723094862
H            10.6132003392        3.2843495940       16.5959285138
H            10.7485653392        5.3607354060        8.0398495138
H             9.8713686608        2.4790404060        0.5162294862
C            10.7398728589        1.6007966743       10.5470228212
C             9.6093311411        4.4824916743       15.1212151788
C             9.7446961411        4.1625933257        6.5651361788
C            10.8752378589        1.2808983257        1.9909428212
H            11.5718078346        0.9122916738       10.6658049493
H             8.7773951654        3.7939866738       15.0024320507
H             8.9127601654        4.8510983262        6.4463530507
H            11.7071738346        1.9694033262        2.1097259493
C            10.7187397822        2.7900124918       11.2888970936
C             9.6304632178        5.6717074918       14.3793409064
C             9.7658292178        2.9733775082        5.8232609064
C            10.8541047822        0.0916825082        2.7328180936
C             9.6402255303        3.6814440657       11.1247154700
C            10.7089784697        0.7997490657       14.5435225300
C            10.8443434697        2.0819459343        5.9874435300
C             9.7755905303        4.9636409343        2.5686364700
H             9.5472275516        4.5615528499       11.7569894504
H            10.8019754484        1.6798578499       13.9112475496
H            10.9373414484        1.2018371501        5.3551685496
H             9.6825925516        4.0835321501        3.2009104504
C             8.6435959068        3.3936450233       10.1927022077
C            11.7056070932        0.5119500233       15.4755357923
C            11.8409720932        2.3697449767        6.9194567923
C             8.7789619068        5.2514399767        1.6366222077
H             7.8398368925        4.1118478757       10.0584022397
H            12.5093671075        1.2301528757       15.6098357603
H            12.6447321075        1.6515421243        7.0537567603
H             7.9752018925        4.5332371243        1.5023222397
C            12.3136310491        4.1459360246       12.3073968757
C             8.0355729509        1.2642410246       13.3608411243
C             8.1709379509        1.6174539754        4.8047621243
C            12.4489960491        4.4991489754        3.7513168757
H            11.9933019070        4.9914647242       11.6792020675
H             8.3559020930        2.1097697242       13.9890359325
H             8.4912670930        0.7719252758        5.4329569325
H            12.1286669070        3.6536202758        3.1231220675
C            13.4401950131        4.4054038015       13.1933471792
C             6.9090079869        1.5237088015       12.4748908208
C             7.0443739869        1.3579861985        3.9188118208
C            13.5755610131        4.2396811985        4.6372681792
C            13.7910226501        3.5126670988       14.2213873399
C             6.5581803499        0.6309720988       11.4468506601
C             6.6935463499        2.2507229012        2.8907716601
C            13.9263886501        5.1324179012        5.6653073399
H            13.1970299799        2.6157648887       14.3630790242
H             7.1521740201        5.4974598887       11.3051589758
H             7.2875390201        3.1476251113        2.7490799758
H            13.3323949799        0.2659301113        5.8070000242
C            14.8444022262        3.8095842969       15.0733465402
C             5.5048017738        0.9278892969       10.5948914598
C             5.6401667738        1.9538057031        2.0388124598
C            14.9797672262        4.8355007031        6.5172675402
H            15.1240666559        3.1404079035       15.8831859863
H             5.2251363441        0.2587129035        9.7850520137
H             5.3605023441        2.6229820965        1.2289730137
H            15.2594316559        5.5046770965        7.3271059863
C            15.5572426386        4.9950537495       14.8967771286
C             4.7919603614        2.1133587495       10.7714608714
C             4.9273263614        0.7683362505        2.2153808714
C            15.6926086386        3.6500312505        6.3406981286
C            15.2579995368        0.1194590661       13.8603286255
C             5.0912034632        3.0011540661       11.8079093745
C             5.2265694632        5.6439309339        3.2518303745
C            15.3933655368        2.7622359339        5.3042486255
H            15.8362336137        1.0213303258       13.6885216097
H             4.5129693863        3.9030253258       11.9797163903
H             4.6483353863        4.7420596742        3.4236363903
H            15.9715996137        1.8603646742        5.1324426097
C            14.1872269131        5.5764022102       13.0205200405
C             6.1619760869        2.6947072102       12.6477179595
C             6.2973420869        0.1869877898        4.0916389595
C            14.3225929131        3.0686827898        4.4644410405
H            13.9243472204        0.5122318248       12.2275288096
H             6.4248557796        3.3939268248       13.4407091904
H             6.5602207796        5.2511581752        4.8846301904
H            14.0597132204        2.3694631752        3.6714488096
C            17.6511449510        5.9525820059       15.5397214230
C             2.6980580490        3.0708870059       10.1285165770
C             2.8334240490       -0.1891920059        1.5724365770
C            17.7865109510        2.6925029941        6.9836424230
F            17.3800896065        1.5154630054       15.3486197105
F             2.9691133935        4.3971580054       10.3196182895
F             3.1044793935        4.2479269946        1.7635392895
F            17.5154556065        1.3662319946        6.7925407105
F            18.5123397445        5.8553417421       16.5619039806
F             1.8368642555        2.9736467421        9.1063330194
F             1.9722292555       -0.0919517421        0.5502540194
F            18.6477047445        2.7897432579        8.0058249806
F            18.2443207667        5.4995694187       14.4088613886
F             2.1048822333        2.6178744187       11.2593766114
F             2.2402472333        0.2638205813        2.7032966114
F            18.3796867667        3.1455155813        5.8527823886
C             0.4216753484        6.0623167805        6.3122755588
C            20.1982586516        3.1806217805        2.2438044412
C            20.0628936516       -0.2989267805       10.7998834412
C             0.2863103484        2.5827682195       14.8683545588
F            -0.1922228473        4.9598688942        6.8086043485
F            20.8121578473        2.0781738942        1.7474746515
F            20.6767918473        0.8035211058       10.3035536515
F            -0.3275888473        3.6852161058       15.3646843485
F            20.2702817678        1.0255448663        5.6258306350
F             0.3496532322        3.9072398663        2.9302483650
F             0.2142872322        4.7378451337       11.4863283650
F            20.1349157678        1.8561501337       14.1819096350
F             0.8304577776        1.0391141171        7.3767729059
F            19.7894772224        3.9208091171        1.1793060941
F            19.6541112224        4.7242758829        9.7353850941
F             0.6950917776        1.8425808829       15.9328529059

K_POINTS gamma
