&CONTROL
  calculation = 'relax'
  prefix = '4amp34'
  outdir = './outdir'
  pseudo_dir = '/home/cyk/q-e-qe-7.2/pp/'
  etot_conv_thr = 3.0D-4
  forc_conv_thr = 3.0D-3
/
&SYSTEM
  a     =  2.07553e+01
  b     =  5.76339e+00
  c     =  1.71143e+01
  cosac = -1.58190e-02
  ibrav = -12
  nat   = 196
  ntyp  = 5
  input_dft = 'pbe'
  vdw_corr = 'DFT-D3'
  dftd3_version = 4
  ecutwfc = 60
  ecutrho = 600
/
&ELECTRONS
  conv_thr = 1.0E-7
  mixing_mode = 'local-TF'
  mixing_beta = 0.7
  mixing_ndim = 8
  diagonalization = 'david'
  electron_maxstep = 200
/
&IONS
/

ATOMIC_SPECIES
  O   16.00  O.pbe-n-rrkjus_psl.1.0.0.UPF
  N   14.00  N.pbe-n-rrkjus_psl.1.0.0.UPF
  C   12.00  C.pbe-n-rrkjus_psl.1.0.0.UPF
  H    1.00  H.pbe-rrkjus_psl.1.0.0.UPF
  F   19.00  F.pbe-n-rrkjus_psl.1.0.0.UPF

ATOMIC_POSITIONS {angstrom}
O	7.645074	0.807993	8.014	1	1	1
O	12.97486	3.689688	0.542079	1	1	1
O	12.839495	4.955397	9.098158	1	1	1
O	7.509709	2.073702	16.57008	1	1	1
O	1.627453	0.042632	5.550021	1	1	1
O	18.992482	2.924327	3.006059	1	1	1
O	18.857116	5.720758	11.562138	1	1	1
O	1.492087	2.839063	14.1061	1	1	1
O	16.389122	5.198388	15.646194	1	1	1
O	3.960082	2.316693	10.022044	1	1	1
O	4.095447	0.565002	1.465964	1	1	1
O	16.524487	3.446697	7.090115	1	1	1
N	11.707731	3.004196	12.171741	1	1	1
N	8.641472	0.122501	13.496496	1	1	1
N	8.776837	2.759194	4.940417	1	1	1
N	11.843097	5.640889	3.615662	1	1	1
C	4.535892	4.733224	7.281771	1	1	1
C	16.084043	1.851529	1.274308	1	1	1
C	15.948677	1.030166	9.830387	1	1	1
C	4.400526	3.911861	15.83785	1	1	1
H	5.121258	5.066452	7.923015	1	1	1
H	15.498677	2.184757	0.633064	1	1	1
H	15.363311	0.696938	9.189144	1	1	1
H	4.985892	3.578633	16.479094	1	1	1
C	3.482913	5.457054	6.905304	1	1	1
C	17.137022	2.575359	1.650776	1	1	1
C	17.001656	0.306336	10.206855	1	1	1
C	3.347547	3.188031	15.461383	1	1	1
H	3.331609	0.525696	7.292158	1	1	1
H	17.288326	3.407391	1.263921	1	1	1
H	17.15296	5.237694	9.82	1	1	1
H	3.196243	2.355999	15.848237	1	1	1
C	2.659446	5.003764	5.993568	1	1	1
C	17.960489	2.122069	2.562512	1	1	1
C	17.825123	0.759626	11.118591	1	1	1
C	2.52408	3.641321	14.549647	1	1	1
C	2.844204	3.823825	5.387797	1	1	1
C	17.77573	0.94213	3.168282	1	1	1
C	17.640365	1.939565	11.724361	1	1	1
C	2.708839	4.82126	13.943877	1	1	1
H	2.263757	3.521431	4.726892	1	1	1
H	18.356177	0.639736	3.829188	1	1	1
H	18.220812	2.241959	12.385267	1	1	1
H	2.128391	5.123654	13.282971	1	1	1
C	3.897444	3.100519	5.774019	1	1	1
C	16.72249	0.218824	2.782061	1	1	1
C	16.587124	2.662871	11.33814	1	1	1
C	3.762079	5.544566	14.330098	1	1	1
H	4.044463	2.278706	5.364148	1	1	1
H	16.575471	5.160401	3.191931	1	1	1
H	16.440106	3.484684	11.74801	1	1	1
H	3.909098	0.602989	13.920228	1	1	1
C	4.759634	3.504464	6.73076	1	1	1
C	15.8603	0.622769	1.82532	1	1	1
C	15.724934	2.258926	10.381399	1	1	1
C	4.624269	5.140621	15.286839	1	1	1
C	5.820509	2.663643	7.18543	1	1	1
C	14.799426	5.545338	1.37065	1	1	1
C	14.66406	3.099747	9.926729	1	1	1
C	5.685143	0.218052	15.741509	1	1	1
H	5.842282	1.81175	6.812812	1	1	1
H	14.777653	4.693445	1.743267	1	1	1
H	14.642287	3.95164	10.299346	1	1	1
H	5.706916	1.069945	15.368892	1	1	1
C	6.74504	2.91631	8.032481	1	1	1
C	13.874895	0.034615	0.523598	1	1	1
C	13.739529	2.84708	9.079677	1	1	1
C	6.609674	5.728775	16.588561	1	1	1
H	6.803002	3.774081	8.387131	1	1	1
H	13.816932	0.892386	0.168948	1	1	1
H	13.681567	1.989309	8.725028	1	1	1
H	6.667637	4.871004	16.94321	1	1	1
C	7.695961	1.92956	8.457719	1	1	1
C	12.923973	4.811255	0.098361	1	1	1
C	12.788607	3.83383	8.65444	1	1	1
C	7.560596	0.952135	17.013798	1	1	1
C	8.699687	2.269882	9.441668	1	1	1
C	11.649516	5.151577	16.22657	1	1	1
C	11.784882	3.493508	7.670491	1	1	1
C	8.835053	0.611813	0.885588	1	1	1
C	9.646537	1.370165	9.743868	1	1	1
C	10.702667	4.25186	15.924369	1	1	1
C	10.838032	4.393225	7.36829	1	1	1
C	9.781902	1.51153	1.187789	1	1	1
H	9.61701	0.539718	9.326144	1	1	1
H	10.732193	3.421413	16.342094	1	1	1
H	10.867558	5.223672	7.786015	1	1	1
H	9.752376	2.341977	0.770064	1	1	1
C	10.639868	1.610556	10.623947	1	1	1
C	9.709336	4.492251	15.044291	1	1	1
C	9.844701	4.152834	6.488212	1	1	1
C	10.775233	1.271139	2.067867	1	1	1
H	11.286495	0.963887	10.793408	1	1	1
H	9.062708	3.845582	14.874829	1	1	1
H	9.198073	4.799503	6.31875	1	1	1
H	11.421861	1.917808	2.237329	1	1	1
C	10.682903	2.815796	11.26223	1	1	1
C	9.6663	5.697491	14.406008	1	1	1
C	9.801666	2.947594	5.849928	1	1	1
C	10.818268	0.065899	2.706151	1	1	1
C	9.712382	3.70503	11.000072	1	1	1
C	10.636822	0.823335	14.668166	1	1	1
C	10.772187	2.05836	6.112087	1	1	1
C	9.847747	4.940055	2.443993	1	1	1
H	9.705962	4.515662	11.4557	1	1	1
H	10.643241	1.633967	14.212537	1	1	1
H	10.778607	1.247728	5.656458	1	1	1
H	9.841327	4.129423	2.899621	1	1	1
C	8.753818	3.456051	10.100144	1	1	1
C	11.595385	0.574356	15.568094	1	1	1
C	11.73075	2.307339	7.012015	1	1	1
C	8.889184	5.189034	1.544064	1	1	1
H	8.113629	4.106778	9.922571	1	1	1
H	12.235575	1.225083	15.745667	1	1	1
H	12.37094	1.656612	7.189588	1	1	1
H	8.248994	4.538307	1.366491	1	1	1
C	12.29333	4.1023	12.1791	1	1	1
C	8.055874	1.220605	13.489138	1	1	1
C	8.191239	1.66109	4.933059	1	1	1
C	12.428695	4.542785	3.62302	1	1	1
H	12.016281	4.762237	11.585274	1	1	1
H	8.332923	1.880542	14.082964	1	1	1
H	8.468288	1.001153	5.526885	1	1	1
H	12.151646	3.882848	3.029194	1	1	1
C	13.36452	4.382171	13.057467	1	1	1
C	6.984683	1.500476	12.610771	1	1	1
C	7.120049	1.381219	4.054692	1	1	1
C	13.499886	4.262914	4.501388	1	1	1
C	13.759165	3.502337	13.983406	1	1	1
C	6.590038	0.620642	11.684832	1	1	1
C	6.725404	2.261053	3.128753	1	1	1
C	13.894531	5.142748	5.427326	1	1	1
H	13.315399	2.688068	14.054096	1	1	1
H	7.033805	5.569763	11.614142	1	1	1
H	7.16917	3.075322	3.058063	1	1	1
H	13.450764	0.193627	5.498017	1	1	1
C	14.784781	3.766819	14.816939	1	1	1
C	5.564423	0.885124	10.851299	1	1	1
C	5.699788	1.996571	2.29522	1	1	1
C	14.920146	4.878266	6.26086	1	1	1
H	15.049475	3.144886	15.455719	1	1	1
H	5.299728	0.263191	10.212519	1	1	1
H	5.435094	2.618504	1.65644	1	1	1
H	15.18484	5.500199	6.899639	1	1	1
C	15.409795	4.933566	14.707421	1	1	1
C	4.939408	2.051871	10.960817	1	1	1
C	5.074774	0.829824	2.404737	1	1	1
C	15.545161	3.711519	6.151342	1	1	1
C	15.06626	0.064994	13.804413	1	1	1
C	5.282943	2.946689	11.863825	1	1	1
C	5.418309	5.698396	3.307746	1	1	1
C	15.201626	2.816701	5.248333	1	1	1
H	15.527129	0.870174	13.740293	1	1	1
H	4.822074	3.751869	11.927945	1	1	1
H	4.95744	4.893216	3.371865	1	1	1
H	15.662495	2.011521	5.184214	1	1	1
C	14.031337	5.560496	12.968826	1	1	1
C	6.317866	2.678801	12.699412	1	1	1
C	6.453232	0.202894	4.143333	1	1	1
C	14.166703	3.084589	4.412747	1	1	1
H	13.777415	0.424917	12.331347	1	1	1
H	6.571788	3.306612	13.336891	1	1	1
H	6.707153	5.338473	4.780812	1	1	1
H	13.912781	2.456778	3.775267	1	1	1
C	17.560185	5.499542	15.357067	1	1	1
C	2.789018	2.617847	10.311171	1	1	1
C	2.924384	0.263848	1.755091	1	1	1
C	17.695551	3.145543	6.800988	1	1	1
F	17.300842	1.138103	15.323322	1	1	1
F	3.048361	4.019798	10.344916	1	1	1
F	3.183727	4.625287	1.788837	1	1	1
F	17.436208	1.743592	6.767243	1	1	1
F	18.322196	5.727202	16.293735	1	1	1
F	2.027008	2.845507	9.374502	1	1	1
F	2.162373	0.036188	0.818423	1	1	1
F	18.457561	2.917883	7.737656	1	1	1
F	17.992928	4.933584	14.292126	1	1	1
F	2.356275	2.051889	11.376112	1	1	1
F	2.49164	0.829806	2.820032	1	1	1
F	18.128294	3.711501	5.736047	1	1	1
C	0.525968	5.743917	6.207316	1	1	1
C	20.093966	2.862222	2.348764	1	1	1
C	19.958601	0.019473	10.904843	1	1	1
C	0.390603	2.901168	14.763395	1	1	1
F	0.182019	4.749041	6.773591	1	1	1
F	20.437916	1.867346	1.782488	1	1	1
F	20.30255	1.014349	10.338567	1	1	1
F	0.046653	3.896044	15.329671	1	1	1
F	20.300541	0.597787	5.586675	1	1	1
F	0.319394	3.479482	2.969404	1	1	1
F	0.184028	5.165603	11.525484	1	1	1
F	20.165175	2.283908	14.142754	1	1	1
F	0.869955	1.119432	7.003082	1	1	1
F	19.74998	4.001127	1.552997	1	1	1
F	19.614614	4.643958	10.109076	1	1	1
F	0.734589	1.762263	15.559162	1	1	1

K_POINTS gamma
