&GLOBAL
  PROJECT 4amp15iso
  RUN_TYPE GEO_OPT
  PRINT_LEVEL MEDIUM
  PREFERRED_DIAG_LIBRARY SL
&END GLOBAL

&MOTION
  &GEO_OPT
    MAX_ITER 3000
    OPTIMIZER LBFGS    #Most efficient minimizer, but only for 'small' systems
    MAX_DR    4.0E-03
    MAX_FORCE 5.5E-04
    RMS_DR    2.5E-03
    RMS_FORCE 4.0E-04
  &END GEO_OPT
&END MOTION


&FORCE_EVAL
  METHOD Quickstep              ! Electronic structure method (DFT,...)
  &DFT
    POTENTIAL_FILE_NAME POTENTIAL_UZH
    BASIS_SET_FILE_NAME BASIS_MOLOPT_UZH
    BASIS_SET_FILE_NAME BASIS_ADMM_UZH
    CHARGE    0 #Net charge
    MULTIPLICITY    1 #Spin multiplicity

    &QS
      METHOD GPW
      EPS_FILTER_MATRIX 0	
      EPS_DEFAULT 1.0E-10
      EPS_PGF_ORB 1.0E-25
    &END QS
    &POISSON                    ! Solver requested for non periodic calculations
      PERIODIC NONE 
      PSOLVER WAVELET #The way to solve Poisson equation
    &END POISSON
    &AUXILIARY_DENSITY_MATRIX_METHOD      
      METHOD BASIS_PROJECTION             
      EXCH_SCALING_MODEL NONE            
      EXCH_CORRECTION_FUNC NONE       
      ADMM_PURIFICATION_METHOD NONE        
    &END AUXILIARY_DENSITY_MATRIX_METHOD
    &SCF
      MAX_SCF 120
      EPS_SCF 1.0E-06 #Convergence threshold of density matrix of inner SCF
  #   SCF_GUESS RESTART #Use wavefunction from WFN_RESTART_FILE_NAME file as initial guess
      &OUTER_SCF
         MAX_SCF 20
         EPS_SCF 1.0E-6
      &END OUTER_SCF
      &OT T
         PRECONDITIONER FULL_ALL
         MINIMIZER DIIS
      &END OT
      
      &PRINT
        &RESTART #Note: Use "&RESTART OFF" can prevent generating .wfn file
          BACKUP_COPIES 0 #Maximum number of backup copies of wfn file. 0 means never
        &END RESTART
      &END PRINT
    &END SCF
    &XC                        ! Parameters needed to compute the electronic exchange potential 
      &XC_FUNCTIONAL PBE0
      &END XC_FUNCTIONAL
    &END XC
    &MGRID
      CUTOFF  600
      REL_CUTOFF  80
    &END MGRID
  &END DFT

  &SUBSYS
    &CELL
      ABC 30 30 30
      PERIODIC NONE #Direction(s) of applied PBC (geometry aspect)
    &END CELL
    &TOPOLOGY                    #Section used to center the atomic coordinates in the given box. Useful for big molecules
      &CENTER_COORDINATES
      &END
    &END
    &COORD
      O	  16.494183	13.315355	12.336804
      O	  20.923835	7.854146	13.818294
      O	  8.510439	20.836327	14.692282
      N	  13.566661	17.866662	15.671553
      C	  19.692052	11.239442	15.855097
      H	  19.368567	12.133309	16.373049
      C	  20.611892	10.400413	16.444835
      H	  21.002423	10.636585	17.428131
      C	  21.057811	9.247732	15.802596
      H	  21.780594	8.608985	16.291771
      C	  20.567065	8.94229	14.53891
      C	  19.64159	9.791556	13.937236
      H	  19.273281	9.537865	12.949735
      C	  19.190644	10.938614	14.580776
      C	  18.216594	11.772201	13.891223
      H	  17.972938	11.486091	12.870603
      C	  17.582481	12.848002	14.371811
      H	  17.762554	13.197861	15.379945
      C	  16.635235	13.592301	13.515616
      C	  15.855519	14.709358	14.118183
      C	  15.191014	15.579733	13.253944
      H	  15.291122	15.413391	12.188125
      C	  14.435037	16.625381	13.740499
      H	  13.959809	17.317949	13.055218
      C	  14.306371	16.822677	15.120288
      C	  14.986609	15.967574	15.987874
      H	  14.898441	16.134897	17.054517
      C	  15.741607	14.922112	15.492729
      H	  16.231829	14.259023	16.194425
      C	  12.448808	18.182884	15.155881
      H	  12.0221	17.61394	14.318952
      C	  11.64055	19.299471	15.638538
      C	  10.450335	19.583722	14.984241
      H	  10.128158	18.98967	14.135823
      C	  9.644699	20.639843	15.403256
      C	  10.037588	21.408372	16.492501
      H	  9.428822	22.231978	16.840518
      C	  11.232934	21.114459	17.145868
      H	  11.528007	21.72103	17.994481
      C	  12.037599	20.075487	16.732211
      H	  12.967498	19.841519	17.23396
      C	  21.863608	6.971752	14.387198
      H	  22.009705	6.175402	13.659811
      H	  21.493787	6.540291	15.323301
      H	  22.821042	7.470056	14.572198
      C	  7.64984	21.872773	15.106152
      H	  6.802796	21.853436	14.423008
      H	  8.139436	22.850295	15.044342
      H	  7.292087	21.711556	16.128441

    &END COORD
    &KIND O
      ELEMENT O
      BASIS_SET ORB TZVP-MOLOPT-PBE0-GTH-q6
      BASIS_SET AUX_FIT admm-tzp-q6
      POTENTIAL GTH-PBE0-q6
    &END KIND
    &KIND N
      ELEMENT N
      BASIS_SET ORB TZVP-MOLOPT-PBE0-GTH-q5
      BASIS_SET AUX_FIT admm-tzp-q5
      POTENTIAL GTH-PBE0-q5
    &END KIND
    &KIND C
      ELEMENT C
      BASIS_SET ORB TZVP-MOLOPT-PBE0-GTH-q4
      BASIS_SET AUX_FIT admm-tzp-q4
      POTENTIAL GTH-PBE0-q4
    &END KIND
    &KIND H
      ELEMENT H
      BASIS_SET ORB TZVP-MOLOPT-PBE0-GTH-q1  
      BASIS_SET AUX_FIT admm-tzp-q1          
      POTENTIAL GTH-PBE0-q1
    &END KIND
  &END SUBSYS
&END FORCE_EVAL
