&GLOBAL
  PROJECT 4amp15iso
  PRINT_LEVEL medium
  RUN_TYPE ENERGY
  PREFERRED_DIAG_LIBRARY SL
&END GLOBAL

&FORCE_EVAL
  METHOD Quickstep
  &SUBSYS
    &CELL
      ABC 30 30 30
      PERIODIC NONE #Direction(s) of applied PBC (geometry aspect)
    &END CELL
    &TOPOLOGY                    #Section used to center the atomic coordinates in the given box. Useful for big molecules
      &CENTER_COORDINATES
      &END
    &END
    &COORD
      O            16.4907345208       13.3084262566       12.3079464897
      O            20.9203938454        7.8508249576       13.8078255839
      O             8.5063826135       20.8303496013       14.6831813376
      N            13.5804222230       17.8635715301       15.6794867920
      C            19.6911425195       11.2426678079       15.8573206553
      H            19.3672244186       12.1370404433       16.3753000928
      C            20.6134613190       10.4010219288       16.4487928614
      H            21.0041154792       10.6375544709       17.4322920486
      C            21.0611349632        9.2457200288       15.8059232186
      H            21.7836005020        8.6064066207       16.2939451018
      C            20.5648409478        8.9461831223       14.5398756524
      C            19.6409913492        9.7894659858       13.9332862964
      H            19.2716546739        9.5368734544       12.9455550130
      C            19.1854325188       10.9434236630       14.5775010302
      C            18.2227803028       11.7647132493       13.8914123621
      H            17.9718826183       11.4845772164       12.8660932908
      C            17.5782097313       12.8543078502       14.3734483352
      H            17.7632699991       13.1994160966       15.3845131509
      C            16.6381716435       13.5976158327       13.5385474864
      C            15.8584178839       14.7058161342       14.1169026770
      C            15.1901635048       15.5807916877       13.2503230183
      H            15.2916123396       15.4126812947       12.1834786322
      C            14.4339413608       16.6270558127       13.7363892109
      H            13.9577643759       17.3209643927       13.0523157164
      C            14.3056951297       16.8259571396       15.1229276676
      C            14.9875278793       15.9665584856       15.9923496395
      H            14.8979901358       16.1356367116       17.0590502473
      C            15.7427230142       14.9206207775       15.4963206365
      H            16.2340261209       14.2562446120       16.1974236156
      C            12.4343256263       18.1906150010       15.1524737336
      H            12.0195886882       17.6110952120       14.3151314648
      C            11.6446547431       19.2943632887       15.6360386688
      C            10.4480381921       19.5819078002       14.9807898118
      H            10.1269651827       18.9870577486       14.1322549138
      C             9.6484616873       20.6381303254       15.4043598806
      C            10.0358594278       21.4124399030       16.4953495710
      H             9.4263849565       22.2354413231       16.8421084689
      C            11.2339536741       21.1170578311       17.1490143130
      H            11.5292430250       21.7236230627       17.9980896986
      C            12.0410674015       20.0751984248       16.7346501109
      H            12.9713445137       19.8405349896       17.2360745864
      C            21.8679985707        6.9665563114       14.3885863801
      H            22.0104844218        6.1720404879       13.6569995931
      H            21.4925914057        6.5383248192       15.3274217905
      H            22.8252640425        7.4718895113       14.5732843020
      C             7.6447493646       21.8774425720       15.1068969707
      H             6.7992545056       21.8535826539       14.4203468209
      H             8.1412416106       22.8546697425       15.0443022900
      H             7.2904170263       21.7113098263       16.1328487698
    &END COORD
    &KIND O
      ELEMENT O
      BASIS_SET ORB TZVP-MOLOPT-PBE0-GTH-q6
      BASIS_SET AUX_FIT admm-tzp-q6
      POTENTIAL GTH-PBE0-q6
    &END KIND
    &KIND N
      ELEMENT N
      BASIS_SET ORB TZVP-MOLOPT-PBE0-GTH-q5
      BASIS_SET AUX_FIT admm-tzp-q5
      POTENTIAL GTH-PBE0-q5
    &END KIND
    &KIND C
      ELEMENT C
      BASIS_SET ORB TZVP-MOLOPT-PBE0-GTH-q4
      BASIS_SET AUX_FIT admm-tzp-q4
      POTENTIAL GTH-PBE0-q4
    &END KIND
    &KIND H
      ELEMENT H
      BASIS_SET ORB TZVP-MOLOPT-PBE0-GTH-q1  
      BASIS_SET AUX_FIT admm-tzp-q1          
      POTENTIAL GTH-PBE0-q1
    &END KIND
  &END SUBSYS

  &DFT
    POTENTIAL_FILE_NAME POTENTIAL_UZH
    BASIS_SET_FILE_NAME BASIS_MOLOPT_UZH
    BASIS_SET_FILE_NAME BASIS_ADMM_UZH
#   WFN_RESTART_FILE_NAME 4amp15iso-RESTART.wfn
    CHARGE    0 #Net charge
    MULTIPLICITY    1 #Spin multiplicity
    &QS
      METHOD GPW
      EPS_FILTER_MATRIX 0	
      EPS_DEFAULT 1.0E-17
      EPS_PGF_ORB 1.0E-20
    &END QS
    &POISSON
      PERIODIC NONE #Direction(s) of PBC for calculating electrostatics
      PSOLVER WAVELET #The way to solve Poisson equation
    &END POISSON
    &XC
     &XC_FUNCTIONAL PBE0
     &END XC_FUNCTIONAL
    &END XC
    &MGRID
      CUTOFF  800
      REL_CUTOFF  80
      NGRIDS 6
    &END MGRID
    &SCCS ON
      ALPHA [mN/m] 9.88
      BETA [GPa] -0.5
      DELTA_RHO 2.0E-5
      DERIVATIVE_METHOD CD5
      DIELECTRIC_CONSTANT 36.71
      EPS_SCCS 1.0E-8
      EPS_SCF 1.0E-2
      GAMMA [mN/m] 36.42
      MAX_ITER 100
      METHOD Fattebert-Gygi
      MIXING 0.6
    &END SCCS
    &AUXILIARY_DENSITY_MATRIX_METHOD      
      METHOD BASIS_PROJECTION             
      EXCH_SCALING_MODEL NONE            
      EXCH_CORRECTION_FUNC NONE       
      ADMM_PURIFICATION_METHOD NONE        
    &END AUXILIARY_DENSITY_MATRIX_METHOD
    &SCF
      MAX_SCF 120
      EPS_SCF 1.0E-06 #Convergence threshold of density matrix of inner SCF
  #   SCF_GUESS RESTART #Use wavefunction from WFN_RESTART_FILE_NAME file as initial guess
      &OUTER_SCF
         MAX_SCF 20
         EPS_SCF 1.0E-6
      &END OUTER_SCF
      &OT T
         PRECONDITIONER FULL_ALL
         MINIMIZER DIIS
      &END OT
      ADDED_MOS    30
      &PRINT
        &RESTART #Note: Use "&RESTART OFF" can prevent generating .wfn file
          BACKUP_COPIES 0 #Maximum number of backup copies of wfn file. 0 means never
        &END RESTART
      &END PRINT
    &END SCF
    &PRINT
      &MO_MOLDEN #Exporting .molden file containing wavefunction information
        NDIGITS 9 #Output orbital coefficients if absolute value is larger than 1E-9
      &END MO_MOLDEN
      &MO_CUBES
        NHOMO 1
        NLUMO 1
        WRITE_CUBE T
        STRIDE 1 1 1
        &EACH
          MD 10
        &END
      &END MO_CUBES
      &SCCS ON
       &EACH
        QS_SCF 1
       &END EACH
      &END SCCS
      &DOS ON
      &END DOS
    &END PRINT
  &END DFT
  &PROPERTIES
     &TDDFPT #TDDFT calculation with Tamm-Dancoff approximation
      MAX_ITER 100
      NSTATES   500 #Number of excited states to solve
      RKS_TRIPLETS F #If calculating triplet rather than singlet excited states
      CONVERGENCE [eV] 1E-4 #Convergence criterion of all excitation energies
      MIN_AMPLITUDE 0.01 #The smallest excitation amplitude to print
#     RESTART T #If restarting TDDFT calculation. If true, WFN_RESTART_FILE_NAME should be set to previous .tdwfn file
#     WFN_RESTART_FILE_NAME 4amp15_pbe0-RESTART.tdwfn
      &PRINT
        #&DETAILED_ENERGY #Print excitation energies at every Davidson iteration
        #&END DETAILED_ENERGY
      &END PRINT
    &END TDDFPT
  &END PROPERTIES
&END FORCE_EVAL
