&CONTROL
  calculation = 'scf'
  prefix = '4amp15pbeiso'
  outdir = './outdir'
  pseudo_dir = '/home/cyk/q-e-qe-7.2/pp/'
/
&SYSTEM
  ibrav = 0
  nat = 49
  ntyp = 4
  input_dft = 'pbe'
  occupations = 'fixed'
  nbnd = 80
  assume_isolated	= 'mt'
  ecutwfc = 50
  ecutrho = 500
  vdw_corr = 'DFT-D3'
  dftd3_version = 4
/
&ELECTRONS
  conv_thr = 1.0E-7
  mixing_mode = 'local-TF'
  mixing_beta = 0.7
  mixing_ndim = 8
  diagonalization = 'david'
  electron_maxstep = 200
/

ATOMIC_SPECIES
  O   16.00  O.pbe-n-rrkjus_psl.1.0.0.UPF
  N   14.00  N.pbe-n-rrkjus_psl.1.0.0.UPF
  C   12.00  C.pbe-n-rrkjus_psl.1.0.0.UPF
  H    1.00  H.pbe-rrkjus_psl.1.0.0.UPF

CELL_PARAMETERS {angstrom}
       33.00000000     0.00000000     0.00000000
        0.00000000     33.0000000     0.00000000
        0.00000000     0.00000000    17.00000000

ATOMIC_POSITIONS {angstrom}
O            16.3861873854       12.9877003145       12.1018417563
O            20.8151762986        7.5247868048       13.5884607314
O             8.3918524163       20.5092981094       14.4647709055
N            13.4655756390       17.5473321424       15.4670850202
C            19.5837476073       10.9265826105       15.6482358170
H            19.2569752778       11.8259959002       16.1671379206
C            20.5087265842       10.0824895317       16.2418074129
H            20.9017261736       10.3205038359       17.2305612894
C            20.9571854756        8.9232949916       15.5946057309
H            21.6840167754        8.2796765052       16.0852661330
C            20.4588149421        8.6212624936       14.3220189381
C            19.5309827927        9.4702274779       13.7147141526
H            19.1606409008        9.2145838065       12.7216941621
C            19.0794028206       10.6232701876       14.3647180886
C            18.1100217934       11.4505879314       13.6744184393
H            17.8633086835       11.1621900127       12.6470264859
C            17.4729059170       12.5331081189       14.1598680822
H            17.6560319972       12.8818915486       15.1763907200
C            16.5287626879       13.2717731008       13.2989253733
C            15.7513293836       14.3864332168       13.9022571206
C            15.0825989424       15.2614561765       13.0301866879
H            15.1865848706       15.0898219173       11.9596861150
C            14.3255042882       16.3111967969       13.5198308894
H            13.8459140219       17.0087074630       12.8330798876
C            14.2054663911       16.5064757259       14.9114818153
C            14.8845591629       15.6447917251       15.7867465039
H            14.7901492335       15.8170269677       16.8581305817
C            15.6398149390       14.5952656009       15.2877918662
H            16.1336905779       13.9272265962       15.9915160465
C            12.3373692567       17.8647380110       14.9397614698
H            11.9097344075       17.2873094957       14.0983527442
C            11.5371063082       18.9765850922       15.4226404415
C            10.3405300616       19.2579147386       14.7628330987
H            10.0174586714       18.6600544536       13.9098299057
C             9.5360547819       20.3181415718       15.1868231255
C             9.9265135097       21.0952272378       16.2835047667
H             9.3135331085       21.9235782889       16.6322535301
C            11.1294888040       20.8008889602       16.9411095439
H            11.4264578566       21.4102210988       17.7948431336
C            11.9386692735       19.7560893032       16.5247785818
H            12.8739694474       19.5172231918       17.0272218337
C            21.7657671728        6.6394984580       14.1734572539
H            21.9094904617        5.8414120130       13.4403746987
H            21.3859916325        6.2157346003       15.1171128452
H            22.7229088637        7.1522073050       14.3611572495
C             7.5303671803       21.5609394792       14.8912218130
H             6.6811788378       21.5381436890       14.2031456570
H             8.0347159306       22.5389370588       14.8308040083
H             7.1813214542       21.3920213425       15.9226346262

K_POINTS gamma
