&CONTROL
  calculation = 'relax'
  prefix = 'iso4amp15_pbe0'
  outdir = './outdir'
  pseudo_dir = '/home/yongkeat1017/miniconda3/pp'
/
&SYSTEM
  ibrav = 0
  nat = 49
  ntyp = 4
  input_dft = 'pbe0'
  x_gamma_extrapolation = .true.
  exxdiv_treatment = 'gygi-baldereschi'
  ecutwfc = 100
  ecutrho = 400
  ecutfock = 100
/
&ELECTRONS
  conv_thr = 1.0E-7
  adaptive_thr = .TRUE.
  mixing_mode = 'local-TF'
  mixing_beta = 0.7
  mixing_ndim = 8
  diagonalization = 'david'
  electron_maxstep = 128
/
&IONS
/

ATOMIC_SPECIES
  O   16.00  O_ONCV_PBE-1.2.upf
  N   14.00  N_ONCV_PBE-1.2.upf
  C   12.00  C_ONCV_PBE-1.2.upf
  H    1.00  H_ONCV_PBE-1.2.upf

CELL_PARAMETERS {angstrom}
       30.00000000     0.00000000     0.00000000
        0.00000000    30.00000000     0.00000000
        0.00000000     0.00000000    30.00000000

ATOMIC_POSITIONS {angstrom}
O	-4.537845944	-1.844787089	9.454241935	1	1	1
O	-0.10819329	-7.305995988	10.93573137	1	1	1
O	-12.52158955	5.676184292	11.80971943	1	1	1
N	-7.465367596	2.706519549	12.78899027	1	1	1
C	-1.339976654	-3.920700226	12.97253454	1	1	1
H	-1.663461753	-3.026832886	13.4904868	1	1	1
C	-0.420136956	-4.759729342	13.56227242	1	1	1
H	-0.029605942	-4.523557614	14.54556861	1	1	1
C	0.025782097	-5.912410732	12.92003371	1	1	1
H	0.748565163	-6.551157419	13.40920829	1	1	1
C	-0.464963726	-6.217852207	11.65634803	1	1	1
C	-1.39043884	-5.368586412	11.0546742	1	1	1
H	-1.758747968	-5.622277282	10.06717297	1	1	1
C	-1.841383996	-4.221528015	11.69821368	1	1	1
C	-2.81543413	-3.387941046	11.00866027	1	1	1
H	-3.059090887	-3.674050988	9.988040589	1	1	1
C	-3.449547737	-2.312140168	11.48924907	1	1	1
H	-3.26947442	-1.962281081	12.49738303	1	1	1
C	-4.396793796	-1.567841117	10.63305397	1	1	1
C	-5.176509116	-0.450784835	11.23562031	1	1	1
C	-5.841014927	0.419590733	10.37138124	1	1	1
H	-5.740906795	0.253248616	9.305562983	1	1	1
C	-6.596991448	1.46523885	10.85793682	1	1	1
H	-7.072219392	2.157806561	10.17265524	1	1	1
C	-6.725657311	1.662534733	12.23772581	1	1	1
C	-6.04541915	0.80743171	13.1053119	1	1	1
H	-6.133587361	0.974754938	14.17195498	1	1	1
C	-5.290421169	-0.238030064	12.61016636	1	1	1
H	-4.800199602	-0.901119258	13.31186236	1	1	1
C	-8.583219988	3.022741603	12.27331855	1	1	1
H	-9.009928365	2.453797815	11.43638983	1	1	1
C	-9.391478259	4.139328386	12.75597577	1	1	1
C	-10.58169323	4.423579393	12.10167838	1	1	1
H	-10.90387004	3.829527779	11.2532606	1	1	1
C	-11.38732949	5.479701059	12.52069328	1	1	1
C	-10.99444058	6.248229865	13.60993838	1	1	1
H	-11.60320624	7.071835799	13.95795526	1	1	1
C	-9.799094376	5.954316891	14.26330574	1	1	1
H	-9.504021258	6.560887913	15.11191895	1	1	1
C	-8.994428979	4.915345115	13.84964837	1	1	1
H	-8.064530605	4.681376667	14.35139747	1	1	1
C	0.831579872	-8.188389927	11.50463554	1	1	1
H	0.977676221	-8.984739973	10.77724906	1	1	1
H	0.461758378	-8.619850861	12.44073917	1	1	1
H	1.78901363	-7.690085901	11.689636	1	1	1
C	-13.38218835	6.712630519	12.22358978	1	1	1
H	-14.22923217	6.693293602	11.5404462	1	1	1
H	-12.89259237	7.690152705	12.1617796	1	1	1
H	-13.73994161	6.551413335	13.24587888	1	1	1


K_POINTS gamma
