&CONTROL
  calculation = 'relax'
  prefix = 'iso4amp15_pbe'
  outdir = './outdir'
  pseudo_dir = '/home/yongkeat1017/miniconda3/pp'
/
&SYSTEM
  ibrav = 0
  nat = 49
  ntyp = 4
  input_dft = 'pbe0'
  x_gamma_extrapolation = .true.
  exxdiv_treatment = 'gygi-baldereschi'
  ecutwfc = 50
  ecutrho = 500
/
&ELECTRONS
  conv_thr = 1.0E-7
  adaptive_thr = .TRUE.
  mixing_mode = 'local-TF'
  mixing_beta = 0.7
  mixing_ndim = 8
  diagonalization = 'david'
  electron_maxstep = 128
/
&IONS
/

ATOMIC_SPECIES
  O   16.00  O.pbe-n-rrkjus_psl.1.0.0.UPF
  N   14.00  N.pbe-n-rrkjus_psl.1.0.0.UPF
  C   12.00  C.pbe-n-rrkjus_psl.1.0.0.UPF
  H    1.00  H.pbe-rrkjus_psl.1.0.0.UPF

CELL_PARAMETERS {angstrom}
       30.00000000     0.00000000     0.00000000
        0.00000000    30.00000000     0.00000000
        0.00000000     0.00000000    30.00000000

ATOMIC_POSITIONS {angstrom}
O	16.494183	13.315355	12.336804	1	1	1
O	20.923835	7.854146	13.818294	1	1	1
O	8.510439	20.836327	14.692282	1	1	1
N	13.566661	17.866662	15.671553	1	1	1
C	19.692052	11.239442	15.855097	1	1	1
H	19.368567	12.133309	16.373049	1	1	1
C	20.611892	10.400413	16.444835	1	1	1
H	21.002423	10.636585	17.428131	1	1	1
C	21.057811	9.247732	15.802596	1	1	1
H	21.780594	8.608985	16.291771	1	1	1
C	20.567065	8.94229	14.53891	1	1	1
C	19.64159	9.791556	13.937236	1	1	1
H	19.273281	9.537865	12.949735	1	1	1
C	19.190644	10.938614	14.580776	1	1	1
C	18.216594	11.772201	13.891223	1	1	1
H	17.972938	11.486091	12.870603	1	1	1
C	17.582481	12.848002	14.371811	1	1	1
H	17.762554	13.197861	15.379945	1	1	1
C	16.635235	13.592301	13.515616	1	1	1
C	15.855519	14.709358	14.118183	1	1	1
C	15.191014	15.579733	13.253944	1	1	1
H	15.291122	15.413391	12.188125	1	1	1
C	14.435037	16.625381	13.740499	1	1	1
H	13.959809	17.317949	13.055218	1	1	1
C	14.306371	16.822677	15.120288	1	1	1
C	14.986609	15.967574	15.987874	1	1	1
H	14.898441	16.134897	17.054517	1	1	1
C	15.741607	14.922112	15.492729	1	1	1
H	16.231829	14.259023	16.194425	1	1	1
C	12.448808	18.182884	15.155881	1	1	1
H	12.0221	17.61394	14.318952	1	1	1
C	11.64055	19.299471	15.638538	1	1	1
C	10.450335	19.583722	14.984241	1	1	1
H	10.128158	18.98967	14.135823	1	1	1
C	9.644699	20.639843	15.403256	1	1	1
C	10.037588	21.408372	16.492501	1	1	1
H	9.428822	22.231978	16.840518	1	1	1
C	11.232934	21.114459	17.145868	1	1	1
H	11.528007	21.72103	17.994481	1	1	1
C	12.037599	20.075487	16.732211	1	1	1
H	12.967498	19.841519	17.23396	1	1	1
C	21.863608	6.971752	14.387198	1	1	1
H	22.009705	6.175402	13.659811	1	1	1
H	21.493787	6.540291	15.323301	1	1	1
H	22.821042	7.470056	14.572198	1	1	1
C	7.64984	21.872773	15.106152	1	1	1
H	6.802796	21.853436	14.423008	1	1	1
H	8.139436	22.850295	15.044342	1	1	1
H	7.292087	21.711556	16.128441	1	1	1

K_POINTS gamma
