&CONTROL
  calculation = 'relax'
  prefix = '4amp34'
  outdir = './outdir'
  pseudo_dir = '/opt/qe/bin/pp/'
/
&SYSTEM
  a     =  5.64230e+00
  b     =  1.01765e+01
  c     =  1.74919e+01
  cosab =  1.10721e-01
  cosac =  1.27686e-01
  cosbc =  2.45255e-01
  ibrav = 14
  nat   = 106
  ntyp  = 5
  input_dft = 'pbe'
  ecutwfc = 50
  ecutrho = 500
/
&ELECTRONS
  conv_thr = 1.0E-10
  mixing_mode = 'local-TF'
  mixing_beta = 0.7
  mixing_ndim = 8
  diagonalization = 'david'
  electron_maxstep = 128
/
&IONS
/

ATOMIC_SPECIES
  O   16.00  O.pbe-n-rrkjus_psl.1.0.0.UPF
  N   14.00  N.pbe-n-rrkjus_psl.1.0.0.UPF
  C   12.00  C.pbe-n-rrkjus_psl.1.0.0.UPF
  H    1.00  H.pbe-rrkjus_psl.1.0.0.UPF
  F  18.9984  F.pbe-n-rrkjus_psl.1.0.0.UPF

ATOMIC_POSITIONS {angstrom}
O	6.52717	5.933569	5.435964	1	1	1
O	2.475349	8.248052	11.429151	1	1	1
N	4.332797	10.456832	9.068709	1	1	1
N	4.669721	3.724788	7.796405	1	1	1
C	2.718227	4.779964	2.312713	1	1	1
C	6.284292	9.401657	14.552401	1	1	1
H	2.409952	5.562217	2.707188	1	1	1
H	6.592567	8.619403	14.157926	1	1	1
C	2.006353	4.215522	1.322731	1	1	1
C	6.996165	9.966099	15.542384	1	1	1
H	1.217688	4.614454	1.032921	1	1	1
H	7.78483	9.567167	15.832194	1	1	1
C	2.433892	3.065618	0.744258	1	1	1
C	6.568627	11.116002	16.120857	1	1	1
C	3.563436	2.486937	1.204844	1	1	1
C	5.439083	11.694684	15.660271	1	1	1
H	3.851162	1.679753	0.83968	1	1	1
H	5.151356	12.501868	16.025434	1	1	1
C	4.267752	3.065516	2.177961	1	1	1
C	4.734766	11.116104	14.687154	1	1	1
H	5.049213	2.657536	2.473488	1	1	1
H	3.953305	11.524085	14.391626	1	1	1
C	3.875418	4.228714	2.74446	1	1	1
C	5.1271	9.952907	14.120655	1	1	1
C	4.687137	4.846252	3.732756	1	1	1
C	4.315381	9.335369	13.132359	1	1	1
H	5.522943	4.458281	3.85604	1	1	1
H	3.479576	9.723339	13.009075	1	1	1
C	4.439838	5.857211	4.481567	1	1	1
C	4.56268	8.32441	12.383548	1	1	1
H	3.608397	6.270749	4.422944	1	1	1
H	5.394121	7.910871	12.442171	1	1	1
C	5.419917	6.373842	5.415894	1	1	1
C	3.582601	7.807778	11.44922	1	1	1
C	5.040785	7.442683	6.341789	1	1	1
C	3.961733	6.738938	10.523326	1	1	1
C	5.911126	7.748417	7.336831	1	1	1
C	3.091392	6.433203	9.528284	1	1	1
H	6.705506	7.270494	7.404848	1	1	1
H	2.297013	6.911127	9.460267	1	1	1
C	5.650775	8.728211	8.228995	1	1	1
C	3.351744	5.453409	8.636119	1	1	1
H	6.266615	8.915995	8.898962	1	1	1
H	2.735903	5.265625	7.966153	1	1	1
C	4.503452	9.436087	8.153102	1	1	1
C	4.499066	4.745534	8.712012	1	1	1
C	3.634798	9.143303	7.161434	1	1	1
C	5.367721	5.038318	9.703681	1	1	1
H	2.849057	9.634405	7.082724	1	1	1
H	6.153461	4.547216	9.78239	1	1	1
C	3.885313	8.150987	6.284448	1	1	1
C	5.117205	6.030633	10.580667	1	1	1
H	3.255729	7.948167	5.628918	1	1	1
H	5.746789	6.233454	11.236197	1	1	1
C	3.24881	10.633257	9.606875	1	1	1
C	5.753709	3.548363	7.258239	1	1	1
H	2.543359	10.071836	9.376464	1	1	1
H	6.459159	4.109784	7.488651	1	1	1
C	3.017816	11.653189	10.564814	1	1	1
C	5.984703	2.528432	6.300301	1	1	1
C	3.928133	12.623921	10.794179	1	1	1
C	5.074385	1.557699	6.070935	1	1	1
H	3.574846	2.5393	10.27927	1	1	1
H	5.427672	11.642321	6.585844	1	1	1
C	2.612725	3.422196	11.741999	1	1	1
C	6.389794	10.759425	5.123116	1	1	1
H	3.257791	4.077837	11.87751	1	1	1
H	5.744728	10.103783	4.987605	1	1	1
C	7.147636	3.417134	12.509361	1	1	1
C	1.854882	10.764487	4.355753	1	1	1
C	7.341973	12.577739	12.288428	1	1	1
C	1.660546	1.603882	4.576686	1	1	1
H	6.563033	12.556938	12.796052	1	1	1
H	2.439486	1.624682	4.069063	1	1	1
C	7.552079	11.64993	11.318684	1	1	1
C	1.450439	2.531691	5.54643	1	1	1
H	6.90867	10.993305	11.17243	1	1	1
H	2.093848	3.188315	5.692685	1	1	1
C	3.958251	6.503383	16.52191	1	1	1
C	5.044268	7.678238	0.343205	1	1	1
C	6.97308	4.378683	13.572032	1	1	1
C	2.029438	9.802937	3.293082	1	1	1
F	2.937854	7.321542	16.030966	1	1	1
F	6.064664	6.860078	0.834149	1	1	1
F	4.723237	6.443639	15.418594	1	1	1
F	4.279281	7.737982	1.446521	1	1	1
F	3.354294	5.460732	16.80322	1	1	1
F	5.648225	8.720888	0.061895	1	1	1
F	5.66705	4.809798	13.609473	1	1	1
F	3.335468	9.371822	3.255642	1	1	1
F	7.626529	5.494033	13.335465	1	1	1
F	1.37599	8.687588	3.529649	1	1	1
F	7.193444	4.008449	14.702501	1	1	1
F	1.809075	10.173172	2.162614	1	1	1
F	4.109271	7.023975	15.463792	1	1	1
F	4.893247	7.157646	1.401322	1	1	1
F	4.319808	5.210309	16.330996	1	1	1
F	4.68271	8.971311	0.534118	1	1	1
F	2.715207	6.423678	16.686682	1	1	1
F	6.287312	7.757942	0.178433	1	1	1
F	7.030352	5.596081	13.251174	1	1	1
F	1.972167	8.585539	3.613941	1	1	1
F	5.90255	4.255713	14.239048	1	1	1
F	3.099968	9.925907	2.626067	1	1	1
F	2.346357	4.167596	14.499141	1	1	1
F	6.656162	10.014025	2.365973	1	1	1


K_POINTS gamma
