&GLOBAL
  PROJECT 4amp34_relax
  RUN_TYPE GEO_OPT
  PRINT_LEVEL LOW
  PREFERRED_DIAG_LIBRARY SL
&END GLOBAL
&FORCE_EVAL
  METHOD QS
  &SUBSYS
    &CELL
      ABC [angstrom] 20.75500000 5.76330000 17.11400000
      PERIODIC XYZ #Direction(s) of applied PBC (geometry aspect)
      ALPHA_BETA_GAMMA [deg] 90.0 90.906 90.0
    &END CELL
    &COORD
      O       7.644859   0.808373   8.013827
      O      12.975075   3.690068   0.542252
      O      12.839710   4.955017   9.098331
      O       7.509493   2.073322  16.569907
      O       1.627177   0.042707   5.551698
      O      18.992757   2.924402   3.004382
      O      18.857392   5.720683  11.560461
      O       1.491812   2.838988  14.107777
      O      16.390329   5.198520  15.645989
      O       3.958875   2.316825  10.022249
      O       4.094240   0.564870   1.466170
      O      16.525694   3.446565   7.089910
      N      11.708344   3.004282  12.172221
      N       8.640859   0.122587  13.496017
      N       8.776224   2.759108   4.939938
      N      11.843710   5.640803   3.616141
      C       4.536681   4.732959   7.281737
      C      16.083253   1.851264   1.274342
      C      15.947888   1.030431   9.830422
      C       4.401316   3.912126  15.837816
      H       5.120624   5.065455   7.923751
      H      15.499311   2.183760   0.632328
      H      15.363945   0.697935   9.188408
      H       4.985258   3.579630  16.479830
      C       3.484117   5.457988   6.905269
      C      17.135817   2.576293   1.650810
      C      17.000452   0.305402  10.206889
      C       3.348751   3.187097  15.461349
      H       3.332585   0.526561   7.292141
      H      17.287350   3.408256   1.263938
      H      17.151984   5.236829   9.820018
      H       3.197219   2.355134  15.848220
      C       2.657955   5.003867   5.993362
      C      17.961980   2.122172   2.562717
      C      17.826614   0.759523  11.118796
      C       2.522589   3.641218  14.549442
      C       2.843958   3.823519   5.387592
      C      17.775976   0.941824   3.168487
      C      17.640610   1.939871  11.724567
      C       2.708593   4.821566  13.943671
      H       2.263319   3.520601   4.727063
      H      18.356616   0.638906   3.829017
      H      18.221250   2.242789  12.385096
      H       2.127953   5.124484  13.283142
      C       3.898438   3.099615   5.774156
      C      16.721496   0.217920   2.781924
      C      16.586130   2.663775  11.338003
      C       3.763073   5.545470  14.330235
      H       4.043465   2.277646   5.364268
      H      16.576469   5.159341   3.191811
      H      16.441104   3.485744  11.747890
      H       3.908099   0.604049  13.920347
      C       4.761046   3.504199   6.730725
      C      15.858888   0.622504   1.825354
      C      15.723523   2.259191  10.381433
      C       4.625681   5.140886  15.286805
      C       5.820667   2.664300   7.185909
      C      14.799267   5.545995   1.370171
      C      14.663902   3.099090   9.926250
      C       5.685302   0.217395  15.741988
      H       5.841981   1.811629   6.813428
      H      14.777953   4.693324   1.742651
      H      14.642587   3.951761  10.298730
      H       5.706616   1.070066  15.369508
      C       6.745406   2.916736   8.032961
      C      13.874529   0.035041   0.523119
      C      13.739163   2.846654   9.079198
      C       6.610040   5.728349  16.589040
      H       6.803324   3.774363   8.386464
      H      13.816610   0.892668   0.169616
      H      13.681245   1.989027   8.725695
      H       6.667958   4.870722  16.942543
      C       7.695511   1.929064   8.457342
      C      12.924424   4.810759   0.098737
      C      12.789058   3.834326   8.654816
      C       7.560145   0.952631  17.013421
      C       8.701080   2.270660   9.442831
      C      11.648123   5.152355  16.225406
      C      11.783489   3.492730   7.669327
      C       8.836446   0.611035   0.886752
      C       9.647113   1.370419   9.744176
      C      10.702090   4.252114  15.924061
      C      10.837456   4.392971   7.367982
      C       9.782478   1.511276   1.188097
      H       9.616451   0.539125   9.327410
      H      10.732752   3.420820  16.340828
      H      10.868118   5.224265   7.784749
      H       9.751816   2.342570   0.771331
      C      10.639622   1.611386  10.623741
      C       9.709581   4.493081  15.044496
      C       9.844947   4.152004   6.488417
      C      10.774987   1.270309   2.067662
      H      11.286575   0.964815  10.792279
      H       9.062628   3.846510  14.875959
      H       9.197993   4.798575   6.319879
      H      11.421941   1.916880   2.236200
      C      10.683490   2.816511  11.261854
      C       9.665713   5.698206  14.406384
      C       9.801079   2.946879   5.850305
      C      10.818856   0.065184   2.705775
      C       9.712130   3.705168  11.000209
      C      10.637073   0.823473  14.668029
      C      10.772438   2.058222   6.111950
      C       9.847496   4.939917   2.444130
      H       9.706002   4.515097  11.455786
      H      10.643201   1.633402  14.212452
      H      10.778567   1.248293   5.656373
      H       9.841368   4.129988   2.899707
      C       8.755023   3.456247  10.100109
      C      11.594180   0.574552  15.568128
      C      11.729546   2.307143   7.012049
      C       8.890388   5.188838   1.544030
      H       8.114191   4.106848   9.922451
      H      12.235012   1.225153  15.745787
      H      12.370378   1.656542   7.189708
      H       8.249557   4.538237   1.366372
      C      12.294116   4.102323  12.179237
      C       8.055087   1.220628  13.489001
      C       8.190453   1.661067   4.932922
      C      12.429482   4.542762   3.623157
      H      12.016350   4.761811  11.584829
      H       8.332853   1.880116  14.083409
      H       8.468219   1.001579   5.527330
      H      12.151715   3.883274   3.028749
      C      13.365730   4.383000  13.057090
      C       6.983473   1.501305  12.611147
      C       7.118839   1.380390   4.055068
      C      13.501095   4.262085   4.501011
      C      13.759936   3.503507  13.984569
      C       6.589268   0.621812  11.683668
      C       6.724633   2.259883   3.127589
      C      13.895301   5.141578   5.428490
      H      13.315944   2.688420  14.053702
      H       7.033259   5.570115  11.614535
      H       7.168624   3.074970   3.058456
      H      13.451310   0.193275   5.497623
      C      14.784723   3.767597  14.817931
      C       5.564480   0.885902  10.850306
      C       5.699845   1.995793   2.294227
      C      14.920089   4.877488   6.261852
      H      15.048600   3.145560  15.455924
      H       5.300603   0.263865  10.212314
      H       5.435969   2.617830   1.656234
      H      15.183965   5.499525   6.899845
      C      15.411191   4.933548  14.708414
      C       4.938013   2.051853  10.959824
      C       5.073378   0.829842   2.403745
      C      15.546556   3.711537   6.152334
      C      15.066416   0.065190  13.805063
      C       5.282787   2.946885  11.863175
      C       5.418153   5.698200   3.307096
      C      15.201781   2.816505   5.248984
      H      15.526998   0.870157  13.740704
      H       4.822205   3.751852  11.927534
      H       4.957571   4.893233   3.371455
      H      15.662364   2.011538   5.184625
      C      14.031488   5.561037  12.969818
      C       6.317716   2.679342  12.698419
      C       6.453081   0.202353   4.142340
      C      14.166853   3.084048   4.413739
      H      13.777398   0.425113  12.331107
      H       6.571805   3.306808  13.337131
      H       6.707170   5.338277   4.781052
      H      13.912764   2.456582   3.775028
      C      17.557037   5.509225  15.356639
      C       2.792166   2.627530  10.311598
      C       2.927532   0.254165   1.755519
      C      17.692403   3.135860   6.800560
      F      17.300988   1.139532  15.323253
      F       3.048215   4.021227  10.344984
      F       3.183580   4.623858   1.788905
      F      17.436354   1.742163   6.767174
      F      18.322634   5.736302  16.290946
      F       2.026569   2.854607   9.377292
      F       2.161935   0.027088   0.821212
      F      18.458000   2.908783   7.734867
      F      17.993963   4.929427  14.289679
      F       2.355240   2.047732  11.378559
      F       2.490605   0.833963   2.822479
      F      18.129329   3.715658   5.733600
      C      17.520664   5.268315  15.426816
      C       2.828540   2.386620  10.241422
      C       2.963905   0.495075   1.685342
      C      17.656029   3.376770   6.870737
      F      17.706090   3.874151  15.299639
      F       2.643113   0.992456  10.368599
      F       2.778478   1.889239   1.812520
      F      17.841456   4.770934   6.743559
      F      18.310917   5.200883  16.378252
      F       2.038287   2.319188   9.289986
      F       2.173652   0.562507   0.733906
      F      18.446282   3.444202   7.822173
      F      18.027843   0.134287  14.404673
      F       2.321360   3.015982  11.263565
      F       2.456726   5.629103   2.707486
      F      18.163209   2.747408   5.848594
      C       0.530093   5.742642   6.205057
      C      20.089842   2.860947   2.351022
      C      19.954476   0.020748  10.907102
      C       0.394727   2.902443  14.761136
      F       0.182868   4.751339   6.781548
      F      20.437066   1.869644   1.774531
      F      20.301700   1.012051  10.330610
      F       0.047503   3.893746  15.337628
      F      20.299338   0.598240   5.583971
      F       0.320596   3.479935   2.972108
      F       0.185231   5.165150  11.528187
      F      20.163973   2.283455  14.140050
      F       0.871192   1.127319   7.002295
      F      19.748743   4.009014   1.553784
      F      19.613377   4.636071  10.109863
      F       0.735826   1.754376  15.558375
      F       0.060626   4.782461   5.498137
      F      20.559309   1.900766   3.057943
      F      20.423943   0.980929  11.614022
      F      -0.074740   3.862624  14.054216
      F      20.566849   0.944620   5.855781
      F       0.053085   3.826315   2.700299
      F      -0.082281   4.818770  11.256378
      F      20.431484   1.937075  14.411860
      F       0.558219   0.038615   7.339644
      F      20.061715   2.920310   1.216435
      F      19.926350   5.724775   9.772514
      F       0.422854   2.843080  15.895724
    &END COORD
    &KIND H
      ELEMENT H
      BASIS_SET TZVP-GTH-q1
      POTENTIAL GTH-PBE
    &END KIND
    &KIND O
      ELEMENT O
      BASIS_SET TZVP-GTH-q6
      POTENTIAL GTH-PBE
    &END KIND
    &KIND C
      ELEMENT C
      BASIS_SET TZVP-GTH-q4
      POTENTIAL GTH-PBE
    &END KIND
    &KIND N
      ELEMENT N
      BASIS_SET TZVP-GTH-q5
      POTENTIAL GTH-PBE
    &END KIND
    &KIND F
      ELEMENT F
      BASIS_SET TZVP-GTH-q7
      POTENTIAL GTH-PBE
    &END KIND
  &END SUBSYS
  &DFT
    BASIS_SET_FILE_NAME  GTH_BASIS_SETS
    POTENTIAL_FILE_NAME  POTENTIAL
#   WFN_RESTART_FILE_NAME mo_4AMP34_0m-RESTART.wfn
    CHARGE    0 #Net charge
    MULTIPLICITY    1 #Spin multiplicity
    &QS
      EPS_DEFAULT 1.0E-10
      METHOD GPW
      EPS_FILTER_MATRIX 0	
      EPS_PGF_ORB 1.0E-15
    &END QS
    &POISSON
      PERIODIC XYZ #Direction(s) of PBC for calculating electrostatics
      PSOLVER PERIODIC #The way to solve Poisson equation
    &END POISSON
    &XC
      &XC_FUNCTIONAL PBE
      &END XC_FUNCTIONAL
    &END XC
    &MGRID
      CUTOFF  400
      REL_CUTOFF  50
    &END MGRID
  
    &SCF
      MAX_SCF 300
      EPS_SCF 1.0E-06 #Convergence threshold of density matrix of inner SCF
      SCF_GUESS RESTART #Use wavefunction from WFN_RESTART_FILE_NAME file as initial guess
      &OUTER_SCF
         MAX_SCF 10
         EPS_SCF 1.0E-5
      &END OUTER_SCF
      &OT T
        PRECONDITIONER FULL_ALL
        ENERGY_GAP 0.001
        MINIMIZER CG
        LINESEARCH 3PNT
      &END OT
      &PRINT
        &RESTART OFF
        &END RESTART
      &END PRINT
    &END SCF
  &END DFT
&END FORCE_EVAL
&MOTION
  &GEO_OPT
    TYPE MINIMIZATION
    MAX_DR    1.0E-03
    MAX_FORCE 1.0E-03
    RMS_DR    1.0E-03
    RMS_FORCE 1.0E-03
    MAX_ITER 200
    OPTIMIZER CG
    &CG
      MAX_STEEP_STEPS  0
      RESTART_LIMIT 9.0E-01
    &END CG
  &END GEO_OPT
  &CONSTRAINT
    &FIXED_ATOMS
      COMPONENTS_TO_FIX XYZ
    &END FIXED_ATOMS
  &END CONSTRAINT
&END MOTION
