 &CONTROL
    calculation = 'relax'
    prefix = 'Monomer_J'
    outdir = './outdir'
    pseudo_dir = '/opt/qe/bin/pp/'
 /
 &SYSTEM
    ibrav = 8, celldm(1) = 52.005263, celldm(2) = 1, celldm(3) =1.823401
    nat = 48
    ntyp = 4
    input_dft = 'pbe'
    ecutwfc = 50
    ecutrho = 500
 /
 &ELECTRONS
    conv_thr =  1.0d-10
    mixing_mode = 'local-TF'
    mixing_beta = 0.7
    mixing_ndim = 8
    diagonalization = 'david'
    electron_maxstep = 128
 /
 &IONS
 /

ATOMIC_SPECIES
 C  12.0107  C.pbe-n-rrkjus_psl.1.0.0.UPF
 H  1.00784  H.pbe-rrkjus_psl.1.0.0.UPF
 F  18.9984  F.pbe-n-rrkjus_psl.1.0.0.UPF
 N  14.0067  N.pbe-n-rrkjus_psl.1.0.0.UPF

ATOMIC_POSITIONS {angstrom}
F	1.5841	4.3356	44.0417	1	1	1
F	2.1833	3.8005	46.6178	1	1	1
F	4.1638	-0.2984	45.4979	1	1	1
F	3.5775	0.2021	42.9022	1	1	1
N	-2.5311	4.9359	29.4555	1	1	1
C	2.2463	3.1461	44.3617	1	1	1
C	2.5349	2.9076	45.6859	1	1	1
C	3.1872	1.7510	46.1135	1	1	1
H	3.4089	1.5801	47.0391	1	1	1
C	3.5039	0.8541	45.1380	1	1	1
C	3.2115	1.1190	43.8138	1	1	1
C	2.5546	2.2750	43.3364	1	1	1
C	2.2547	2.4677	41.9126	1	1	1
H	2.5546	1.7839	41.3481	1	1	1
C	1.5963	3.5050	41.2858	1	1	1
H	1.3016	4.2070	41.8338	1	1	1
C	1.3009	3.6313	39.8205	1	1	1
C	1.5841	2.6151	38.9156	1	1	1
H	2.0079	1.8127	39.2311	1	1	1
C	1.2424	2.7896	37.5499	1	1	1
H	1.4497	2.0964	36.9522	1	1	1
C	0.6068	3.9426	37.0311	1	1	1
C	0.3584	4.9571	37.9443	1	1	1
H	-0.0418	5.7700	37.6288	1	1	1
C	0.6911	4.7885	39.3141	1	1	1
H	0.4944	5.4851	39.9119	1	1	1
C	0.2248	3.9943	35.6114	1	1	1
H	0.5498	3.2930	35.0801	1	1	1
C	-0.5475	4.9342	34.9514	1	1	1
H	-0.8148	5.6696	35.4661	1	1	1
C	-1.0138	4.9400	33.5318	1	1	1
C	-0.6759	3.9356	32.6227	1	1	1
H	-0.1063	3.2260	32.9465	1	1	1
C	-1.1345	3.9356	31.2985	1	1	1
H	-0.8650	3.2548	30.7132	1	1	1
C	-2.0208	4.9753	30.7963	1	1	1
C	-2.3412	5.9744	31.6763	1	1	1
H	-2.9077	6.6875	31.3608	1	1	1
C	-1.8484	5.9504	33.0129	1	1	1
H	-2.0899	6.6541	33.5857	1	1	1
C	-2.1339	3.9121	28.5672	1	1	1
H	-1.1543	3.9115	28.5547	1	1	1
H	-2.5394	4.0877	27.6581	1	1	1
H	-2.4346	3.0416	28.8744	1	1	1
C	-3.4370	5.9856	28.9532	1	1	1
H	-4.2367	5.9856	29.4596	1	1	1
H	-3.6998	5.8229	28.0026	1	1	1
H	-2.9852	6.8520	29.0528	1	1	1


K_POINTS gamma
