 &CONTROL
    calculation = 'scf'
    prefix = 'Monomer_J'
    outdir = './outdir'
    pseudo_dir = '/opt/qe/bin/pp/'
 /
 &SYSTEM
    ibrav = 8, celldm(1) = 52.005263, celldm(2) = 1, celldm(3) =1.460029
    nat = 48
    ntyp = 4
    occupations = 'fixed'
    nbnd = 80
    input_dft = 'pbe'
    ecutwfc = 50
    ecutrho = 500
 /
 &ELECTRONS
    conv_thr =  1.0d-10
    mixing_mode = 'local-TF'
    mixing_beta = 0.7
    mixing_ndim = 8
    diagonalization = 'david'
    electron_maxstep = 128
 /

ATOMIC_SPECIES
 C  12.0107  C.pbe-n-rrkjus_psl.1.0.0.UPF
 H  1.00784  H.pbe-rrkjus_psl.1.0.0.UPF
 F  18.9984  F.pbe-n-rrkjus_psl.1.0.0.UPF
 N  14.0067  N.pbe-n-rrkjus_psl.1.0.0.UPF

ATOMIC_POSITIONS {angstrom}
F            14.2409541185       13.3026021383       27.0832576564
F            14.6395400031       13.8229669409       29.6485490351
C            14.8505751193       14.4432518954       27.3732557283
C            14.4997663668       14.2176940217       24.2487303685
H            14.0639501659       13.3083986279       24.9570293801
C            14.2744701584       14.0105815668       22.8974755767
C            13.7812506600       13.6784647576       20.0908784533
C            13.5198648091       12.7852165941       21.0563912100
C            13.7240863530       12.9264502813       22.2645822096
H            13.4162198266       12.0298550846       23.0571975649
C            13.4566381922       13.5301505225       18.7378317847
H            13.9264512947       14.4440508249       18.0700970699
C            15.0641965338       14.7206727442       28.7487285665
C            15.2547224640       15.3448838894       26.3781773979
C            15.0144757036       15.0588810074       25.0308273975
C            14.5583241195       14.8868764993       21.9148006798
C            14.3503861686       14.7453767782       20.7089109024
H            13.0299965706       11.7295038705       20.6404073388
C            12.8296667809       12.7973676362       17.9383535918
C            15.6611263194       15.8541564327       29.0229442949
C            15.8818601247       16.5174199166       26.8239955410
H            15.4611582358       15.9507261489       24.3151889239
H            15.0792694680       15.9358573967       22.3308102763
H            14.6697262095       15.6384549678       19.9183122434
C            12.4336554640       12.6968089549       16.6096961796
H            12.4235783398       11.8371077231       18.6088093581
H            15.8562889539       16.0710096960       30.2095956147
C            16.0825916598       16.7827676900       28.1951686615
F            16.3126585816       17.4237418993       25.9461094341
C            11.6652671825       11.7682088056       15.9977403491
C            12.7580219475       13.5909799032       15.6605407491
F            16.7015292894       17.9203473032       28.5333640627
C            11.3076302030       11.7421024951       14.8013583855
H            11.2993972511       10.8620409084       16.7429808489
H            13.4592600065       14.5071204064       16.0653183844
C            12.4153101023       13.5785043779       14.4504032915
C            11.6312445819       12.6772152260       13.8451879473
H            10.6097968206       10.8279618904       14.3913596136
H            12.8316591883       14.4753123390       13.7040273828
N            11.2126375031       12.6728340589       12.5679358798
C            10.4075828720       11.7147501127       12.0704463746
C            11.6484677604       13.6452786870       11.7072788221
H             9.4086880370       11.6373580190       12.5975562946
H            10.1327558985       11.8202308619       10.9858150712
H            10.8373545322       10.6717285137       12.1446478624
H            11.3040623420       13.5192363737       10.6498031812
H            11.3167942393       14.6874428600       11.9890711667
H            12.7677664776       13.7169553506       11.6332338929

K_POINTS gamma
