 &CONTROL
    calculation = 'scf'
    prefix = 'Monomer J'
    outdir = './outdir'
    tstress = .true.
    tprnfor = .true.
    pseudo_dir = '/opt/qe/bin/pp/'
 /
 &SYSTEM
    ibrav = 8,
    nat = 48,
    ntyp = 4,
    ecutwfc = 50,
    ecutrho = 500
    occupations = 'smearing'
    smearing = 'mv'
    degauss = 0.02
 /
 &ELECTRONS
    conv_thr =  1.0d-10
    mixing_mode = 'local-TF'
    mixing_beta = 0.4
    mixing_ndim = 8
    diagonalization = 'david'
    electron_maxstep = 128
 /

ATOMIC_SPECIES
 C  12.0107  C.pbe-n-rrkjus_psl.1.0.0.UPF
 H  1.00784  H.pbe-rrkjus_psl.1.0.0.UPF
 F  18.9984  F.pbe-n-rrkjus_psl.1.0.0.UPF
 N  14.0067  N.pbe-n-rrkjus_psl.1.0.0.UPF

CELL_PARAMETERS {angstrom}
       27.52000000     0.00000000     0.00000000
        0.00000000     27.5200000     0.00000000
        0.00000000     0.00000000     40.1800000

ATOMIC_POSITIONS crystal
C        5.634905178   6.321969786   5.000000000
C        6.847104104   8.420378382   5.000000000
C        8.059072877   7.720810323   5.000000000
C        8.058982717   6.321775745   5.000000000
C        6.846891976   5.622390903   5.000000000
C        5.635014493   7.721010867   5.000000000
H        6.847224737   9.524129211   5.000000000
H        9.014965040   8.272588883   5.000000000
H        9.014832673   5.769918129   5.000000000
H        6.846819373   4.518642564   5.000000000
H        4.678986374   5.770245379   5.000000000
H        4.679200457   8.272939830   5.000000000

K_POINTS gamma
