 &CONTROL
    calculation = 'scf'
    prefix = 'Monomer_J'
    outdir = './outdir'
    pseudo_dir = '/opt/qe/bin/pp/'
 /
 &SYSTEM
    ibrav = 8, celldm(1) = 52.005263, celldm(2) = 1, celldm(3) =1.823401
    nat = 48
    ntyp = 4
    input_dft = 'pbe'
    ecutwfc = 50
    ecutrho = 500
 /
 &ELECTRONS
    conv_thr =  1.0d-10
    mixing_mode = 'local-TF'
    mixing_beta = 0.7
    mixing_ndim = 8
    diagonalization = 'david'
    electron_maxstep = 128
 /

ATOMIC_SPECIES
 C  12.0107  C.pbe-n-rrkjus_psl.1.0.0.UPF
 H  1.00784  H.pbe-rrkjus_psl.1.0.0.UPF
 F  18.9984  F.pbe-n-rrkjus_psl.1.0.0.UPF
 N  14.0067  N.pbe-n-rrkjus_psl.1.0.0.UPF

ATOMIC_POSITIONS angstrom
F	1.5841	4.3356	44.0417
F	2.1833	3.8005	46.6178
F	4.1638	-0.2984	45.4979
F	3.5775	0.2021	42.9022
N	-2.5311	4.9359	29.4555
C	2.2463	3.1461	44.3617
C	2.5349	2.9076	45.6859
C	3.1872	1.7510	46.1135
H	3.4089	1.5801	47.0391
C	3.5039	0.8541	45.1380
C	3.2115	1.1190	43.8138
C	2.5546	2.2750	43.3364
C	2.2547	2.4677	41.9126
H	2.5546	1.7839	41.3481
C	1.5963	3.5050	41.2858
H	1.3016	4.2070	41.8338
C	1.3009	3.6313	39.8205
C	1.5841	2.6151	38.9156
H	2.0079	1.8127	39.2311
C	1.2424	2.7896	37.5499
H	1.4497	2.0964	36.9522
C	0.6068	3.9426	37.0311
C	0.3584	4.9571	37.9443
H	-0.0418	5.7700	37.6288
C	0.6911	4.7885	39.3141
H	0.4944	5.4851	39.9119
C	0.2248	3.9943	35.6114
H	0.5498	3.2930	35.0801
C	-0.5475	4.9342	34.9514
H	-0.8148	5.6696	35.4661
C	-1.0138	4.9400	33.5318
C	-0.6759	3.9356	32.6227
H	-0.1063	3.2260	32.9465
C	-1.1345	3.9356	31.2985
H	-0.8650	3.2548	30.7132
C	-2.0208	4.9753	30.7963
C	-2.3412	5.9744	31.6763
H	-2.9077	6.6875	31.3608
C	-1.8484	5.9504	33.0129
H	-2.0899	6.6541	33.5857
C	-2.1339	3.9121	28.5672
H	-1.1543	3.9115	28.5547
H	-2.5394	4.0877	27.6581
H	-2.4346	3.0416	28.8744
C	-3.4370	5.9856	28.9532
H	-4.2367	5.9856	29.4596
H	-3.6998	5.8229	28.0026
H	-2.9852	6.8520	29.0528

K_POINTS gamma
