 &CONTROL
    calculation = 'relax'
    prefix = 'Monomer_J'
    outdir = './outdir'
    pseudo_dir = '/opt/qe/bin/pp/'
 /
 &SYSTEM
    ibrav = 8, celldm(1) = 52.005263, celldm(2) = 1, celldm(3) =1.823401
    nat = 48
    ntyp = 4
    input_dft = 'pbe'
    ecutwfc = 50
    ecutrho = 500
 /
 &ELECTRONS
    conv_thr =  1.0d-10
    mixing_mode = 'local-TF'
    mixing_beta = 0.7
    mixing_ndim = 8
    diagonalization = 'david'
    electron_maxstep = 128
 /
 &IONS
 /

ATOMIC_SPECIES
 C  12.0107  C.pbe-n-rrkjus_psl.1.0.0.UPF
 H  1.00784  H.pbe-rrkjus_psl.1.0.0.UPF
 F  18.9984  F.pbe-n-rrkjus_psl.1.0.0.UPF
 N  14.0067  N.pbe-n-rrkjus_psl.1.0.0.UPF

ATOMIC_POSITIONS {angstrom}
F	14.233874	13.289636	27.081795	1	1	1
F	14.639798	13.824757	29.650647	1	1	1
C	14.872064	14.479121	27.400935	1	1	1
C	14.452751	14.120219	24.333712	1	1	1
H	14.117001	13.418276	24.880099	1	1	1
C	14.267262	13.993928	22.872537	1	1	1
C	13.782419	13.682606	20.090924	1	1	1
C	13.465591	12.668166	21.001571	1	1	1
C	13.695452	12.83675	22.367541	1	1	1
H	13.453929	12.140094	22.963602	1	1	1
C	13.506933	13.630915	18.675284	1	1	1
H	13.871813	14.332271	18.145451	1	1	1
C	15.061305	14.717605	28.721375	1	1	1
C	15.257291	15.350235	26.378529	1	1	1
C	15.064132	15.157568	24.958744	1	1	1
C	14.618399	15.01013	21.970169	1	1	1
C	14.379113	14.835672	20.608339	1	1	1
H	13.089052	11.855205	20.686984	1	1	1
C	12.784133	12.691075	18.017134	1	1	1
C	15.681557	15.874196	29.147725	1	1	1
C	15.878363	16.506238	26.854549	1	1	1
H	15.406443	15.841301	24.395802	1	1	1
H	15.018479	15.812519	22.284756	1	1	1
H	14.631269	15.528804	20.012279	1	1	1
C	12.424353	12.685201	16.601491	1	1	1
H	12.478213	11.95565	18.530406	1	1	1
H	15.833864	16.045129	30.07079	1	1	1
C	16.071402	16.771155	28.174985	1	1	1
F	16.312773	17.423169	25.945557	1	1	1
C	11.628695	11.674873	16.084078	1	1	1
C	12.830479	13.689655	15.694983	1	1	1
F	16.704324	17.923634	28.533866	1	1	1
C	11.23611	11.65079	14.751223	1	1	1
H	11.344236	10.971168	16.655301	1	1	1
H	13.375741	14.399234	16.017848	1	1	1
C	12.471132	13.689655	14.374546	1	1	1
C	11.622589	12.649957	13.873691	1	1	1
H	10.693262	10.937686	14.436636	1	1	1
H	12.784624	14.370452	13.790903	1	1	1
N	11.212849	12.689313	12.536693	1	1	1
C	10.344562	11.639629	12.035838	1	1	1
C	11.676651	13.713151	11.650883	1	1	1
H	9.506925	11.639629	12.540833	1	1	1
H	10.153116	11.802339	11.087938	1	1	1
H	10.788932	10.773214	12.13518	1	1	1
H	11.339323	13.537518	10.744375	1	1	1
H	11.352886	14.583678	11.95719	1	1	1
H	12.657211	13.713739	11.638465	1	1	1

K_POINTS gamma
