 &CONTROL
    calculation = 'scf'
    prefix = 'Monomer_J'
    outdir = './outdir'
    pseudo_dir = '/opt/qe/bin/pp/'
 /
 &SYSTEM
    ibrav = 8, celldm(1) = 52.005263, celldm(2) = 1, celldm(3) =1.823401
    nat = 48
    ntyp = 4
    input_dft = 'pbe'
    ecutwfc = 50
    ecutrho = 500
 /
 &ELECTRONS
    conv_thr =  1.0d-10
    mixing_mode = 'local-TF'
    mixing_beta = 0.7
    mixing_ndim = 8
    diagonalization = 'david'
    electron_maxstep = 128
 /

ATOMIC_SPECIES
 C  12.0107  C.pbe-n-rrkjus_psl.1.0.0.UPF
 H  1.00784  H.pbe-rrkjus_psl.1.0.0.UPF
 F  18.9984  F.pbe-n-rrkjus_psl.1.0.0.UPF
 N  14.0067  N.pbe-n-rrkjus_psl.1.0.0.UPF

ATOMIC_POSITIONS {angstrom}
F             1.5954487630        4.3167086931       44.0514787041
F             2.1779551916        3.8141028576       46.6258866174
F             4.1563730553       -0.2885348365       45.4886583752
F             3.5820690048        0.1902008928       42.8924146606
N            -2.5352211352        4.9617629196       29.5047329337
C             2.2233199247        3.1863335391       44.3563766563
C             2.5409823816        2.8990395720       45.6982497656
C             3.1532820890        1.7848040282       46.0077371828
H             3.4342466915        1.5622605965       47.1548390537
C             3.5171542738        0.8360863753       45.1367076621
C             3.2111014517        1.1132544265       43.7946289532
C             2.5564571755        2.2690914025       43.3284054002
C             2.1985590963        2.5900805129       41.9945275424
H             2.6107633478        1.6571836261       41.2527351187
C             1.6488359847        3.3841449506       41.1944798434
H             1.2476156241        4.3330327889       41.9243572764
C             1.3049479122        3.6273606819       39.8474110438
C             1.5230773873        2.7243442645       38.8437764750
H             2.0647072418        1.7015613590       39.2669337862
C             1.2165001212        2.8937849170       37.6627983684
H             1.4853886403        1.9733335702       36.8480809819
C             0.6079471437        3.9350055709       37.0242150600
C             0.4143749052        4.8528923702       38.0146183913
H            -0.0976450640        5.8841535223       37.5921311016
C             0.7158445413        4.6849045722       39.1986073818
H             0.4597933044        5.6081803323       40.0151407239
C             0.1634853385        4.1204604634       35.6826005177
H             0.6069539906        3.1634672406       34.9911111288
C            -0.4967984660        4.8044242552       34.8661398323
H            -0.8692602661        5.8035539783       35.5553294067
C            -1.0124201776        4.9429259661       33.5441742687
C            -0.7470729713        4.0163880486       32.5657762560
H            -0.0329059521        3.1316921806       32.9798850033
C            -1.1889126353        4.0626441619       31.3955739491
H            -0.8175126830        3.1329795068       30.6132275517
C            -2.0107789093        4.9357505094       30.7581783258
C            -2.2692639180        5.9013318918       31.7492010462
H            -2.9815460698        6.7840149658       31.3289678074
C            -1.8139584939        5.8403516798       32.9090491114
H            -2.1342332911        6.7784814201       33.6837723772
C            -2.1625005977        3.9842457684       28.5888324839
H            -1.0421843392        3.9061640002       28.5398633236
H            -2.5618920086        4.0997488665       27.5925539448
H            -2.4739853515        2.9290462914       28.9119253895
C            -3.3338674506        5.9080466605       28.9579662685
H            -4.3688645577        5.9875770115       29.5453262617
H            -3.7132008271        5.8064913004       27.9221428979
H            -2.9392594167        6.9495403273       29.0580737885

K_POINTS gamma
