 &CONTROL
    calculation = 'scf'
    prefix = 'Monomer_J'
    outdir = './outdir'
    pseudo_dir = '/opt/qe/bin/pp/'
 /
 &SYSTEM
    ibrav = 8, celldm(1) = 52.005263, celldm(2) = 1, celldm(3) =1.460029
    nat = 48
    ntyp = 4
    input_dft = 'pbe'
    ecutwfc = 50
    ecutrho = 500
 /
 &ELECTRONS
    conv_thr =  1.0d-10
    mixing_mode = 'local-TF'
    mixing_beta = 0.7
    mixing_ndim = 8
    diagonalization = 'david'
    electron_maxstep = 128
 /

ATOMIC_SPECIES
 C  12.0107  C.pbe-n-rrkjus_psl.1.0.0.UPF
 H  1.00784  H.pbe-rrkjus_psl.1.0.0.UPF
 F  18.9984  F.pbe-n-rrkjus_psl.1.0.0.UPF
 N  14.0067  N.pbe-n-rrkjus_psl.1.0.0.UPF

ATOMIC_POSITIONS {angstrom}
 F   -0.162710    4.475401   23.221083
 F    0.243214    5.010522   25.789935
 C    0.475480    5.664886   23.540223
 C    0.056167    5.305984   20.473000
 H   -0.279583    4.604041   21.019387
 C   -0.129322    5.179693   19.011825
 C   -0.614165    4.868371   16.230212
 C   -0.930993    3.853931   17.140859
 C   -0.701132    4.022515   18.506829
 H   -0.942655    3.325859   19.102890
 C   -0.889651    4.816680   14.814572
 H   -0.524771    5.518036   14.284739
 C    0.664721    5.903370   24.860663
 C    0.860707    6.536000   22.517817
 C    0.667548    6.343333   21.098032
 C    0.221815    6.195895   18.109457
 C   -0.017471    6.021437   16.747627
 H   -1.307532    3.040970   16.826272
 C   -1.612451    3.876840   14.156422
 C    1.284973    7.059961   25.287013
 C    1.481779    7.692003   22.993837
 H    1.009859    7.027066   20.535090
 H    0.621895    6.998284   18.424044
 H    0.234685    6.714569   16.151567
 C   -1.972231    3.870966   12.740779
 H   -1.918371    3.141415   14.669694
 H    1.437280    7.230894   26.210078
 C    1.674818    7.956920   24.314273
 F    1.916189    8.608934   22.084845
 C   -2.767889    2.860638   12.223366
 C   -1.566105    4.875420   11.834271
 F    2.307740    9.109399   24.673154
 C   -3.160474    2.836555   10.890511
 H   -3.052348    2.156933   12.794589
 H   -1.020843    5.584999   12.157136
 C   -1.925452    4.875420   10.513834
 C   -2.773995    3.835722   10.012979
 H   -3.703322    2.123451   10.575924
 H   -1.611960    5.556217    9.930191
 N   -3.183735    3.875078    8.675981
 C   -4.052022    2.825394    8.175126
 C   -2.719933    4.898916    7.790171
 H   -4.889659    2.825394    8.680121
 H   -4.243468    2.988104    7.227226
 H   -3.607652    1.958979    8.274468
 H   -3.057261    4.723283    6.883663
 H   -3.043698    5.769443    8.096478
 H   -1.739373    4.899504    7.777753

K_POINTS gamma
