 &CONTROL
    calculation = 'scf'
    prefix = 'Monomer J'
    outdir = './outdir'
    tstress = .true.
    tprnfor = .true.
    pseudo_dir = '/opt/qe/bin/pp/'
 /
 &SYSTEM
    ibrav = 8, celldm(2) = 0.9394622, celldm(3) = 1.46002907
    nat = 48
    ntyp = 4
    input_dft = 'pbe'
    ecutwfc = 50
    ecutrho = 500
    occupations = 'smearing'
    smearing = 'mv'
    degauss = 0.02
 /
 &ELECTRONS
    conv_thr =  1.0d-10
    mixing_mode = 'local-TF'
    mixing_beta = 0.4
    mixing_ndim = 8
    diagonalization = 'david'
    electron_maxstep = 128
 /

ATOMIC_SPECIES
 C  12.0107  C.pbe-n-rrkjus_psl.1.0.0.UPF
 H  1.00784  H.pbe-rrkjus_psl.1.0.0.UPF
 F  18.9984  F.pbe-n-rrkjus_psl.1.0.0.UPF
 N  14.0067  N.pbe-n-rrkjus_psl.1.0.0.UPF

CELL_PARAMETERS {angstrom}
       27.52000000     0.00000000     0.00000000
        0.00000000     27.5200000     0.00000000
        0.00000000     0.00000000     40.1800000

ATOMIC_POSITIONS crystal
F	0.2086	0.7381	1.0610	0.0315
F	0.2875	0.6470	1.1231	0.0359
F	0.5483	-0.0508	1.0961	0.0331
F	0.4711	0.0344	1.0335	0.0292
N	-0.3333	0.8403	0.7096	0.0370
C	0.2958	0.5356	1.0687	0.0220
C	0.3338	0.4950	1.1006	0.0240
C	0.4197	0.2981	1.1109	0.0230
H	0.4489	0.2690	1.1332	0.0270
C	0.4614	0.1454	1.0874	0.0210
C	0.4229	0.1905	1.0555	0.0210
C	0.3364	0.3873	1.0440	0.0210
C	0.2969	0.4201	1.0097	0.0270
H	0.3364	0.3037	0.9961	0.0330
C	0.2102	0.5967	0.9946	0.0280
H	0.1714	0.7162	1.0078	0.0340
C	0.1713	0.6182	0.9593	0.0220
C	0.2086	0.4452	0.9375	0.0230
H	0.2644	0.3086	0.9451	0.0280
C	0.1636	0.4749	0.9046	0.0290
H	0.1909	0.3569	0.8902	0.0350
C	0.0799	0.6712	0.8921	0.0250
C	0.0472	0.8439	0.9141	0.0270
H	-0.0055	0.9823	0.9065	0.0330
C	0.0910	0.8152	0.9471	0.0290
H	0.0651	0.9338	0.9615	0.0350
C	0.0296	0.6800	0.8579	0.0360
H	0.0724	0.5606	0.8451	0.0430
C	-0.0721	0.8400	0.8420	0.0310
H	-0.1073	0.9652	0.8544	0.0370
C	-0.1335	0.8410	0.8078	0.0280
C	-0.0890	0.6700	0.7859	0.0340
H	-0.0140	0.5492	0.7937	0.0400
C	-0.1494	0.6700	0.7540	0.0310
H	-0.1139	0.5541	0.7399	0.0370
C	-0.2661	0.8470	0.7419	0.0310
C	-0.3083	1.0171	0.7631	0.0280
H	-0.3829	1.1385	0.7555	0.0340
C	-0.2434	1.0130	0.7953	0.0320
H	-0.2752	1.1328	0.8091	0.0390
C	-0.2810	0.6660	0.6882	0.0390
H	-0.1520	0.6659	0.6879	0.0580
H	-0.3344	0.6959	0.6663	0.0580
H	-0.3206	0.5178	0.6956	0.0580
C	-0.4526	1.0190	0.6975	0.0430
H	-0.5579	1.0190	0.7097	0.0650
H	-0.4872	0.9913	0.6746	0.0650
H	-0.3931	1.1665	0.6999	0.0650

K_POINTS gamma
