&GLOBAL
  PROJECT 4amp1_rcam_b3lyp.in
  PRINT_LEVEL LOW
  RUN_TYPE ENERGY
&END GLOBAL

&FORCE_EVAL
  METHOD Quickstep
  &SUBSYS
    &CELL
      A    16.29700000     0.00000000     0.00000000
      B     0.00000000     5.63040000     0.00000000
      C   -15.27928516     0.00000000    19.56081507
      PERIODIC XYZ #Direction(s) of applied PBC (geometry aspect)
    &END CELL
    &COORD
      O          -4.56454782    3.85457184    9.46117503
      O           0.05122032    4.31401248   10.88578919
      O           3.81580848    5.34043440   12.02559789
      N          -7.33293067    2.72961792   12.78123217
      C          -1.81050007    1.54047744   13.04804169
      H          -2.25211795    2.19805749   13.53571237
      C          -0.95467958    0.71562384   13.66322932
      H          -0.80488757    0.81344078   14.57580003
      C          -0.30119134    5.36802336   12.98309978
      H           0.29226629    4.80150377   13.42198579
      C          -0.52537078    5.23458288   11.66567889
      C          -1.39326054    0.43748208   11.03464699
      H          -1.54748236    0.33145039   10.12369984
      C          -2.03888525    1.41942384   11.70929951
      C          -2.92349592    2.28312720   10.98867908
      H          -3.06487027    2.07481366   10.09349794
      C          -3.54519512    3.31855776   11.44033830
      H          -3.42072658    3.56336192   12.32882964
      C          -4.42565596    4.10906592   10.62093576
      C          -5.15727428    5.21487648   11.21206359
      C          -5.98460799    0.32036976   10.41769889
      H          -6.05528054    0.10747308    9.51510420
      C          -6.70516036    1.35073296   10.90828413
      H          -7.25261621    1.84433324   10.34182249
      C          -6.63228832    1.66885056   12.22433577
      C          -5.78834157    0.96561360   13.01224540
      H          -5.69565553    1.19941033   13.90756346
      C          -5.07710902    5.56227216   12.52107333
      H          -4.52252331    5.07854197   13.08925633
      C          -8.50054288    2.94413616   12.39099391
      H          -8.87397099    2.35901936   11.77238313
      C          -9.29147658    4.04938368   12.85067307
      C           5.78215199    4.21435440   12.29710200
      H           5.47180783    3.59981876   11.67156669
      C           5.00461711    5.26892832   12.64782741
      C           5.43792437    0.51574464   13.57442322
      H           4.90420599    1.23434133   13.82799007
      C          -9.63611183    0.33726096   14.13268888
      H          -9.33655706    0.93797960   14.77637663
      C          -8.84696496    4.93786080   13.77335671
      H          -8.00388775    4.83677260   14.15426446
      C           0.95053493    3.41540064   11.46615858
      H           1.29275126    2.82383703   10.79136914
      H           0.50126456    2.90330450   12.14221947
      H           1.67770005    3.90114651   11.86320400
      C           3.09269431    0.89354448   12.16624015
      H           2.31497388    0.86212685   11.60408188
      H           3.64289519    1.63715704   11.90997391
      H           2.82172517    0.99623735   13.08152980
      O          13.22190524    1.03937184    0.31923250
      O          -6.67314805    1.49881248   18.45543341
      O         -10.43773622    2.52523440   17.31562471
      N           0.71100293    5.54481792   16.55999043
      C          -4.81142767    4.35567744   16.29318091
      H          -4.36980979    5.01325749   15.80551023
      C          -5.66724815    3.53082384   15.67799328
      H          -5.81704017    3.62864078   14.76542257
      C          -6.32073640    2.55282336   16.35812281
      H          -6.91419403    1.98630377   15.91923681
      C          -6.09655696    2.41938288   17.67554371
      C          -5.22866719    3.25268208   18.30657560
      H          -5.07444538    3.14665039   19.21752276
      C          -4.58304249    4.23462384   17.63192309
      C          -3.69843181    5.09832720   18.35254352
      H          -3.55705746    4.89001366   19.24772466
      C          -3.07673262    0.50335776   17.90088430
      H          -3.20120116    0.74816192   17.01239296
      C          -2.19627178    1.29386592   18.72028684
      C          -1.46465346    2.39967648   18.12915901
      C          -0.63731975    3.13556976   18.92352371
      H          14.71263796    2.92267308    0.26530333
      C           0.08323262    4.16593296   18.43293847
      H           0.63068848    4.65953324   18.99940011
      C           0.01036058    4.48405056   17.11688683
      C          -0.83358617    3.78081360   16.32897720
      H          -0.92627220    4.01461033   15.43365913
      C          -1.54481872    2.74707216   16.82014927
      H          -2.09940443    2.26334197   16.25196627
      C           1.87861514    0.12893616   16.95022869
      H           2.25204325    5.17421936   17.56883946
      C           2.66954884    1.23418368   16.49054953
      C         -12.40407973    1.39915440   17.04412060
      H         -12.09373557    0.78461876   17.66965590
      C         -11.62654485    2.45372832   16.69339519
      C         -12.05985211    3.33094464   15.76679938
      H         -11.52613372    4.04954133   15.51323253
      C           3.01418409    3.15246096   15.20853371
      H           2.71462932    3.75317960   14.56484597
      C           2.22503722    2.12266080   15.56786589
      H           1.38196001    2.02157260   15.18695813
      C          -7.57246266    0.60020064   17.87506402
      H          -7.91467900    0.00863703   18.54985346
      H          -7.12319230    0.08810450   17.19900313
      H          -8.29962778    1.08594651   17.47801860
      C          -9.71462205    3.70874448   17.17498245
      H          -8.93690162    3.67732685   17.73714072
      H         -10.26482293    4.45235704   17.43124869
      H          -9.44365291    3.81143735   16.25969279
      O           5.58226266    1.77582816   10.09964003
      O           0.96649452    1.31638752    8.67502587
      O          -2.79809364    0.28996560    7.53521718
      N           8.35064551    2.90078208    6.77958289
      C           2.82821491    4.08992256    6.51277338
      H           3.26983279    3.43234251    6.02510270
      C           1.97239442    4.91477616    5.89758574
      H           1.82260241    4.81695922    4.98501504
      C           1.31890618    0.26237664    6.57771528
      H           0.72544855    0.82889623    6.13882927
      C           1.54308562    0.39581712    7.89513618
      C           2.41097538    5.19291792    8.52616807
      H           2.56519720    5.29894961    9.43711523
      C           3.05660009    4.21097616    7.85151556
      C           3.94121076    3.34727280    8.57213599
      H           4.08258512    3.55558634    9.46731713
      C           4.56290996    2.31184224    8.12047677
      H           4.43844142    2.06703808    7.23198542
      C           5.44337080    1.52133408    8.93987931
      C           6.17498912    0.41552352    8.34875148
      C           7.00232283    5.31003024    9.14311618
      H           7.07299538    5.52292692   10.04571087
      C           7.72287520    4.27966704    8.65253094
      H           8.27033105    3.78606676    9.21899258
      C           7.65000316    3.96154944    7.33647930
      C           6.80605641    4.66478640    6.54856967
      H           6.71337038    4.43098967    5.65325160
      C           6.09482386    0.06812784    7.03974173
      H           5.54023815    0.55185803    6.47155874
      C           9.51825772    2.68626384    7.16982115
      H           9.89168583    3.27138064    7.78843193
      C          10.30919142    1.58101632    6.71014200
      C          -4.76443715    1.41604560    7.26371307
      H          -4.45409299    2.03058124    7.88924837
      C          -3.98690227    0.36147168    6.91298765
      C          -4.42020953    5.11465536    5.98639184
      H          -3.88649114    4.39605867    5.73282500
      C          10.65382667    5.29313904    5.42812618
      H          10.35427190    4.69242040    4.78443844
      C           9.86467980    0.69253920    5.78745835
      H           9.02160259    0.79362740    5.40655060
      C           0.06717992    2.21499936    8.09465649
      H          -0.27503642    2.80656297    8.76944593
      H           0.51645028    2.72709550    7.41859560
      H          -0.65998520    1.72925349    7.69761107
      C          -2.07497947    4.73685552    7.39457492
      H          -1.29725904    4.76827315    7.95673318
      H          -2.62518035    3.99324296    7.65084116
      H          -1.80401033    4.63416265    6.47928526
      O         -12.20419040    4.59102816   19.24158256
      O           7.69086290    4.13158752    1.10538166
      O          11.45545106    3.10516560    2.24519035
      N           0.30671191    0.08558208    3.00082464
      C           5.82914251    1.27472256    3.26763416
      H           5.38752463    0.61714251    3.75530484
      C           6.68496300    2.09957616    3.88282179
      H           6.83475501    2.00175922    4.79539250
      C           7.33845124    3.07757664    3.20269225
      H           7.93190887    3.64409623    3.64157826
      C           7.11427180    3.21101712    1.88527136
      C           6.24638204    2.37771792    1.25423946
      H           6.09216022    2.48374961    0.34329230
      C           5.60075733    1.39577616    1.92889197
      C           4.71614666    0.53207280    1.20827155
      H           4.57477230    0.74038634    0.31309041
      C           4.09444746    5.12704224    1.65993077
      H           4.21891600    4.88223808    2.54842211
      C           3.21398662    4.33653408    0.84052822
      C           2.48236830    3.23072352    1.43165605
      C           1.65503459    2.49483024    0.63729135
      H         -13.69492312    2.70772692   19.29551173
      C           0.93448222    1.46446704    1.12787660
      H           0.38702637    0.97086676    0.56141495
      C           1.00735426    1.14634944    2.44392823
      C           1.85130101    1.84958640    3.23183787
      H           1.94398705    1.61578967    4.12715593
      C           2.56253356    2.88332784    2.74066580
      H           3.11711927    3.36705803    3.30884879
      C          -0.86090030    5.50146384    2.61058638
      H          -1.23432841    0.45618064    1.99197560
      C          -1.65183400    4.39621632    3.07026553
      C          13.42179457    4.23124560    2.51669447
      H          13.11145041    4.84578124    1.89115916
      C          12.64425969    3.17667168    2.86741988
      C          13.07756695    2.29945536    3.79401569
      H          12.54384857    1.58085867    4.04758254
      C          -1.99646925    2.47793904    4.35228135
      H          -1.69691448    1.87722040    4.99596909
      C          -1.20732238    3.50773920    3.99294918
      H          -0.36424517    3.60882740    4.37385693
      C           8.59017750    5.03019936    1.68575104
      H           8.93239384    5.62176297    1.01096161
      H           8.14090714    5.54229550    2.36181193
      H           9.31734262    4.54445349    2.08279647
      C          10.73233689    1.92165552    2.38583261
      H           9.95461646    1.95307315    1.82367435
      H          11.28253777    1.17804296    2.12956638
      H          10.46136775    1.81896265    3.30112227
    &END COORD
    &KIND O
      ELEMENT O
      BASIS_SET aug-TZVP-GTH-q6
      POTENTIAL ALL
    &END KIND
    &KIND N
      ELEMENT N
      BASIS_SET aug-TZVP-GTH-q5
      POTENTIAL ALL
    &END KIND
    &KIND C
      ELEMENT C
      BASIS_SET aug-TZVP-GTH-q4
      POTENTIAL ALL
    &END KIND
    &KIND H
      ELEMENT H
      BASIS_SET aug-TZVP-GTH-q1
      POTENTIAL ALL
    &END KIND
  &END SUBSYS

  &DFT
    BASIS_SET_FILE_NAME  GTH_BASIS_SETS
    POTENTIAL_FILE_NAME  POTENTIAL
#   WFN_RESTART_FILE_NAME mo_4AMP15_0m-RESTART.wfn
    CHARGE    0 #Net charge
    MULTIPLICITY    1 #Spin multiplicity
    &QS
      EPS_DEFAULT 1.0E-12 #Set all EPS_xxx to values such that the energy will be correct up to this value
    &END QS
    &POISSON
      PERIODIC XYZ #Direction(s) of PBC for calculating electrostatics
      PSOLVER PERIODIC #The way to solve Poisson equation
    &END POISSON
    &XC
      &HF
        &INTERACTION_POTENTIAL
          OMEGA 0.33
          POTENTIAL_TYPE MIX_CL
          SCALE_COULOMB 0.18352
          SCALE_LONGRANGE 0.94979
        &END INTERACTION_POTENTIAL
        &MEMORY
          MAX_MEMORY 100
        &END MEMORY
        &SCREENING
          EPS_SCHWARZ 1.0E-10
        &END SCREENING
      &END HF
      &XC_FUNCTIONAL
        &BECKE88
          SCALE_X 0.95238
        &END BECKE88
        &BECKE88_LR
          OMEGA 0.33
          SCALE_X -0.94979
        &END BECKE88_LR
        &LYP
          SCALE_C 1.0
        &END LYP
        &XALPHA
          SCALE_X -0.13590
        &END XALPHA
      &END XC_FUNCTIONAL
    &END XC
    &MGRID
      CUTOFF  500
      REL_CUTOFF  50
    &END MGRID
    &SCF
      MAX_SCF 128
      EPS_SCF 1.0E-06 #Convergence threshold of density matrix of inner SCF
#     SCF_GUESS RESTART #Use wavefunction from WFN_RESTART_FILE_NAME file as initial guess
      &DIAGONALIZATION
        ALGORITHM STANDARD #Algorithm for diagonalization
      &END DIAGONALIZATION
      &MIXING #How to mix old and new density matrices
        METHOD BROYDEN_MIXING #PULAY_MIXING is also a good alternative
        ALPHA 0.4 #Default. Mixing 40% of new density matrix with the old one
        NBROYDEN 8 #Default is 4. Number of previous steps stored for the actual mixing scheme
      &END MIXING
      ADDED_MOS    30 #Number of virtual MOs to solve
      &PRINT
        &RESTART #Note: Use "&RESTART OFF" can prevent generating .wfn file
          BACKUP_COPIES 0 #Maximum number of backup copies of wfn file. 0 means never
        &END RESTART
      &END PRINT
    &END SCF
    &PRINT
      &MO_MOLDEN #Exporting .molden file containing wavefunction information
        NDIGITS 9 #Output orbital coefficients if absolute value is larger than 1E-9
      &END MO_MOLDEN
      &MO_CUBES
        NHOMO 1
        NLUMO 1
      &END MO_CUBES
    &END PRINT
  &END DFT
  &PROPERTIES
    &TDDFPT #TDDFT calculation with Tamm-Dancoff approximation
      NSTATES   50 #Number of excited states to solve
      RKS_TRIPLETS F #If calculating triplet rather than singlet excited states
      CONVERGENCE [eV] 1E-4 #Convergence criterion of all excitation energies
      MIN_AMPLITUDE 0.01 #The smallest excitation amplitude to print
#     RESTART T #If restarting TDDFT calculation. If true, WFN_RESTART_FILE_NAME should be set to previous .tdwfn file
#     WFN_RESTART_FILE_NAME mo_4AMP15_0m-RESTART.tdwfn
      &PRINT
        #&DETAILED_ENERGY #Print excitation energies at every Davidson iteration
        #&END DETAILED_ENERGY
      &END PRINT
    &END TDDFPT
  &END PROPERTIES
&END FORCE_EVAL
