&GLOBAL
  PROJECT 4amp15pbesolvent
  PRINT_LEVEL LOW
  RUN_TYPE ENERGY
&END GLOBAL

&FORCE_EVAL
  METHOD Quickstep
  &SUBSYS
    &CELL
      A    16.29700000     0.00000000     0.00000000
      B     0.00000000     5.63040000     0.00000000
      C   -15.27928516     0.00000000    19.56081507
      PERIODIC XYZ #Direction(s) of applied PBC (geometry aspect)
    &END CELL
    &COORD
      O        -4.6330247268        3.8702189823        9.3020802645
      O         0.0736152339        4.1324661153       10.8527619063
      O         3.6821033106        5.3586100849       12.0207978139
      N        -7.3159794017        2.7645973177       12.9585423056
      C        -1.7582943550        1.5630859534       13.0088212567
      H        -2.2221334662        2.3910891962       13.5444453347
      C        -0.9046958183        0.6934678057       13.6688816378
      H        -0.6657193967        0.8311091931       14.7246760286
      C        -0.2844970408        5.2543036246       13.0016637983
      H         0.4304356999        4.6352695685       13.5386976257
      C        -0.5538260090        5.0481465510       11.6449413970
      C        -1.4912112045        0.2370173550       10.9852744383
      H        -1.6970885281        0.0721761322        9.9294370564
      C        -2.0594670477        1.3410829667       11.6365331966
      C        -2.9114338222        2.2106931366       10.8587986806
      H        -3.1074904894        1.9114839341        9.8262671465
      C        -3.4732984445        3.3573024783       11.3156944296
      H        -3.2928320374        3.6671722343       12.3409301731
      C        -4.4113407357        4.1407713719       10.5054800577
      C        -5.1112774319        5.2672433635       11.1620704637
      C        -5.9371969000        0.4612485875       10.3743530560
      H        -5.9998695615        0.2494072189        9.3067070157
      C        -6.6669766519        1.4898638041       10.9467936835
      H        -7.3036097115        2.1166857795       10.3252929158
      C        -6.5874316116        1.7430250090       12.3342942286
      C        -5.7201327679        0.9538643858       13.1165496544
      H        -5.6322097192        1.1602431071       14.1828642542
      C        -5.0122774139        5.5408004820       12.5441362850
      H        -4.3742487388        4.9360230806       13.1860194029
      C        -8.5211072173        2.9859043556       12.5370888814
      H        -8.9968786290        2.3333482460       11.7862987017
      C        -9.3323097079        4.1126864048       12.9798377619
      C         5.7032164389        4.2424839962       12.3812335272
      H         5.3737536108        3.4878465613       11.6643488561
      C         4.8908261038        5.3358299957       12.6814483929
      C         5.3061229117        0.6658159121       13.6094691512
      H         4.6799413484        1.5110688527       13.8846188886
      C        -9.7215681906        0.5294661907       14.2047844039
      H        -9.4020196131        1.2852861390       14.9230824442
      C        -8.8882828741        5.0921182836       13.8975712631
      H        -7.8999767073        4.9981795962       14.3448288803
      C         1.0471897702        3.2973263278       11.4996848822
      H         1.4316166278        2.6509682630       10.7073471209
      H         0.5639215174        2.7000501995       12.2942123461
      H         1.8652447039        3.9023623392       11.9171609716
      C         2.8666044735        0.8960443440       12.1969053157
      H         1.9842205318        0.7308805590       11.5708018336
      H         3.4068609232        1.7973317949       11.8566672612
      H         2.5511292799        1.0129655788       13.2440742313
      O        13.2903821469        1.0550189821        0.4783272700
      O        -6.6955429730        1.3172661126       18.4884606995
      O       -10.3040310499        2.5434100842       17.3204247913
      N         0.6940516623        5.5797973175       16.3826802984
      C        -4.8636333845        4.3782859510       16.3324013491
      H        -4.3997942736        5.2062891937       15.7967772714
      C        -5.7172319200        3.5086678023       15.6723409678
      H        -5.9562083410        3.6463091895       14.6165465767
      C        -6.3374306976        2.4391036215       16.3395588071
      H        -7.0523634385        1.8200695654       15.8025249792
      C        -6.0681017305        2.2329465491       17.6962812085
      C        -5.1307165354        3.0522173519       18.3559481675
      H        -4.9248392115        2.8873761293       19.4117855493
      C        -4.5624606921        4.1562829650       17.7046894097
      C        -3.7104939196        5.0258931348       18.4824239263
      H        -3.5144372516        4.7266839334       19.5149554598
      C        -3.1486292942        0.5421024768       18.0255281749
      H        -3.3290957012        0.8519722310       17.0002924322
      C        -2.2105870026        1.3255713699       18.8357425477
      C        -1.5106503059        2.4520433616       18.1791521404
      C        -0.6847308372        3.2764485864       18.9668695481
      H        14.6572269855        3.0646072177        0.4737005184
      C         0.0450489142        4.3050638025       18.3944289202
      H         0.6816819747        4.9318857785       19.0159296874
      C        -0.0344961272        4.5582250083       17.0069283751
      C        -0.9017949710        3.7690643846       16.2246729496
      H        -0.9897180207        3.9754431066       15.1583583496
      C        -1.6096503244        2.7256004810       16.7970863197
      H        -2.2476790001        2.1208230791       16.1552032019
      C         1.8991794788        0.1707043554       16.8041337209
      H         2.3749508917        5.1485482445       17.5549238988
      C         2.7103819697        1.2974864037       16.3613848390
      C       -12.3251441783        1.4272839968       16.9599890763
      H       -11.9956813511        0.6726465632       17.6768737493
      C       -11.5127538430        2.5206299961       16.6597742118
      C       -11.9280506485        3.4810159111       15.7317534515
      H       -11.3018690856        4.3262688524       15.4566037137
      C         3.0996404543        3.3446661901       15.1364381982
      H         2.7800918772        4.1004861384       14.4181401579
      C         2.2663551369        2.2769182833       15.4436513381
      H         1.2780489707        2.1829795953       14.9963937195
      C        -7.6691175104        0.4821263262       17.8415377239
      H        -8.0535443667       -0.1642317394       18.6338754849
      H        -7.1858492589       -0.1151498016       17.0470102586
      H        -8.4871724438        1.0871623396       17.4240616363
      C        -9.4885322114        3.7112443422       17.1443172892
      H        -8.6061482695        3.5460805566       17.7704207711
      H       -10.0287886590        4.6125317965       17.4845553399
      H        -9.1730570181        3.8281655726       16.0971483731
      O         5.6507395672        1.7601810168       10.2587348023
      O         0.9440996075        1.4979338851        8.7080531648
      O        -2.6643884712        0.2717899169        7.5400172564
      N         8.3336942430        2.8658026822        6.6022727618
      C         2.7760091961        4.0673140472        6.5519938141
      H         3.2398483068        3.2393108047        6.0163697336
      C         1.9224106584        4.9369321973        5.8919334305
      H         1.6834342360        4.7992908089        4.8361390402
      C         1.3022118742        0.3760963763        6.5591512729
      H         0.5872791386        0.9951304324        6.0221174447
      C         1.5715408519        0.5822534515        7.9158736747
      C         2.5089260433        5.3933826442        8.5755406332
      H         2.7148033681        5.5582238688        9.6313780141
      C         3.0771818905        4.2893170363        7.9242818725
      C         3.9291486590        3.4197068664        8.7020163939
      H         4.1252053286        3.7189160659        9.7345479215
      C         4.4910132855        2.2730975184        8.2451206360
      H         4.3105468763        1.9632277664        7.2198848973
      C         5.4290555765        1.4896286298        9.0553350160
      C         6.1289922731        0.3631566393        8.3987446071
      C         6.9549117413        5.1691514132        9.1864620145
      H         7.0175844021        5.3809927810       10.2541080529
      C         7.6846914909        4.1405361959        8.6140213863
      H         8.3213245516        3.5137142198        9.2355221530
      C         7.6051464531        3.8873749910        7.2265208406
      C         6.7378476091        4.6765356173        6.4442654149
      H         6.6499245597        4.4701568950        5.3779508112
      C         6.0299922565        0.0895995204        7.0166787848
      H         5.3919635795        0.6943769225        6.3747956652
      C         9.5388220574        2.6444956462        7.0237261864
      H        10.0145934702        3.2970517565        7.7745163661
      C        10.3500245497        1.5177135959        6.5809773060
      C        -4.6855015976        1.3879160072        7.1795815404
      H        -4.3560387700        2.1425534400        7.8964662142
      C        -3.8731112625        0.2945700045        6.8793666802
      C        -4.2884080680        4.9645840872        5.9513459186
      H        -3.6622265065        4.1193311472        5.6761961809
      C        10.7392830330        5.1009338096        5.3560306640
      H        10.4197344557        4.3451138617        4.6377326245
      C         9.9059977123        0.5382817163        5.6632438085
      H         8.9176915472        0.6322204041        5.2159861868
      C        -0.0294749293        2.3330736723        8.0611301891
      H        -0.4139017872        2.9794317387        8.8534679508
      H         0.4537933228        2.9303498015        7.2666027233
      H        -0.8475298640        1.7280376605        7.6436540993
      C        -1.8488896333        4.7343556578        7.3639097543
      H        -0.9665056895        4.8995194419        7.9900132361
      H        -2.3891460821        3.8330682021        7.7041478059
      H        -1.5334144400        4.6174344257        6.3167408370
      O       -12.2726673068        4.5753810167       19.0824878024
      O         7.7132578124        4.3131338855        1.0723543699
      O        11.3217458914        3.0869899164        2.2403902789
      N         0.3236631784        0.0506026786        3.1781347714
      C         5.8813482229        1.2521140479        3.2284137210
      H         5.4175091117        0.4241108061        3.7640378009
      C         6.7349467602        2.1217321989        3.8884741044
      H         6.9739231829        1.9840908102        4.9442684948
      C         7.3551455443        3.1912963772        3.2212562618
      H         8.0700782802        3.8103304335        3.7582900901
      C         7.0858165671        3.3974534518        1.8645338601
      C         6.1484313766        2.5781826450        1.2048669014
      H         5.9425540513        2.7430238692        0.1490295205
      C         5.5801755288        1.4741170365        1.8561256621
      C         4.7282087609        0.6045068664        1.0783911409
      H         4.5321520919        0.9037160652        0.0458596129
      C         4.1663441339        5.0882975183        1.5352868992
      H         4.3468105424        4.7784277669        2.5605226378
      C         3.2283018433        4.3048286295        0.7250725187
      C         2.5283651461        3.1783566389        1.3816629274
      C         1.7024456774        2.3539514130        0.5939455196
      H       -13.6395121443        2.5657927813       19.0871145511
      C         0.9726659279        1.3253361958        1.1663861475
      H         0.3360328664        0.6985142200        0.5448853809
      C         1.0522109669        1.0721749892        2.5538866931
      C         1.9195098101        1.8613356158        3.3361421188
      H         2.0074328593        1.6549568930        4.4024567227
      C         2.6273651632        2.9047995189        2.7637287491
      H         3.2653938411        3.5095769205        3.4056118686
      C        -0.8814646368        5.4596956437        2.7566813481
      H        -1.3572360504        0.4818517542        2.0058911689
      C        -1.6926671293        4.3329135942        3.1994302293
      C        13.3428590180        4.2031160051        2.6008259950
      H        13.0133961901        4.9577534380        1.8839413215
      C        12.5304686825        3.1097700032        2.9010408561
      C        12.9457654878        2.1493840859        3.8290616174
      H        12.3195839266        1.3041311455        4.1042113546
      C        -2.0819256125        2.2857338075        4.4243768709
      H        -1.7623770344        1.5299138589        5.1426749096
      C        -1.2486402916        3.3534817139        4.1171637260
      H        -0.2603341260        3.4474204013        4.5644213467
      C         8.6868323495        5.1482736724        1.7192773455
      H         9.0712592068        5.7946317395        0.9269395844
      H         8.2035640979        5.7455498006        2.5138048126
      H         9.5048872845        4.5432376600        2.1367534342
      C        10.5062470530        1.9191556576        2.4164977799
      H         9.6238631097        2.0843194425        1.7903942977
      H        11.0465035018        1.0178682024        2.0762597270
      H        10.1907718591        1.8022344239        3.4636666971
    &END COORD
    &KIND O
      ELEMENT O
      BASIS_SET TZVP-GTH-q6
      POTENTIAL GTH-PBE
    &END KIND
    &KIND N
      ELEMENT N
      BASIS_SET TZVP-GTH-q5
      POTENTIAL GTH-PBE
    &END KIND
    &KIND C
      ELEMENT C
      BASIS_SET TZVP-GTH-q4
      POTENTIAL GTH-PBE
    &END KIND
    &KIND H
      ELEMENT H
      BASIS_SET TZVP-GTH-q1
      POTENTIAL GTH-PBE
    &END KIND
  &END SUBSYS

  &DFT
    BASIS_SET_FILE_NAME  GTH_BASIS_SETS
    POTENTIAL_FILE_NAME  POTENTIAL
    WFN_RESTART_FILE_NAME 4amp15pbedft-RESTART.wfn
    CHARGE    0 #Net charge
    MULTIPLICITY    1 #Spin multiplicity
    &QS
      EPS_DEFAULT 1.0E-12 #Set all EPS_xxx to values such that the energy will be correct up to this value
    &END QS
    &POISSON
      PERIODIC XYZ #Direction(s) of PBC for calculating electrostatics
      PSOLVER PERIODIC #The way to solve Poisson equation
    &END POISSON
    &XC
      &XC_FUNCTIONAL PBE
      &END XC_FUNCTIONAL
    &END XC
    &MGRID
      CUTOFF  400
      REL_CUTOFF  60
    &END MGRID
    &SCCS ON
      ALPHA [mN/m] 9.88
      BETA [GPa] -0.5
      DELTA_RHO 2.0E-5
      DERIVATIVE_METHOD CD5
      DIELECTRIC_CONSTANT 36.71
      EPS_SCCS 1.0E-8
      EPS_SCF 1.0E-2
      GAMMA [mN/m] 36.42
      MAX_ITER 100
      METHOD Fattebert-Gygi
      MIXING 0.6
    &END SCCS
    &SCF
      MAX_SCF 128
      EPS_SCF 1.0E-06 #Convergence threshold of density matrix of inner SCF
      SCF_GUESS RESTART #Use wavefunction from WFN_RESTART_FILE_NAME file as initial guess
      &DIAGONALIZATION
        ALGORITHM STANDARD #Algorithm for diagonalization
      &END DIAGONALIZATION
      &MIXING #How to mix old and new density matrices
        METHOD BROYDEN_MIXING #PULAY_MIXING is also a good alternative
        ALPHA 0.4 #Default. Mixing 40% of new density matrix with the old one
        NBROYDEN 8 #Default is 4. Number of previous steps stored for the actual mixing scheme
      &END MIXING
      ADDED_MOS    30 #Number of virtual MOs to solve
      &PRINT
        &RESTART #Note: Use "&RESTART OFF" can prevent generating .wfn file
          BACKUP_COPIES 0 #Maximum number of backup copies of wfn file. 0 means never
        &END RESTART
      &END PRINT
    &END SCF
    &PRINT
      &MO_MOLDEN #Exporting .molden file containing wavefunction information
        NDIGITS 9 #Output orbital coefficients if absolute value is larger than 1E-9
      &END MO_MOLDEN
      &MO_CUBES
        APPEND T
        NHOMO 1
        NLUMO 1
        WRITE_CUBE T
        STRIDE 1 1 1
        &EACH
          MD 10
        &END
      &END MO_CUBES
    &END PRINT
  &END DFT
  &PROPERTIES
     &TDDFPT #TDDFT calculation with Tamm-Dancoff approximation
      KERNEL sTDA
      &sTDA
        FRACTION 0.20
        DO_EWALD T
      &END sTDA
      MAX_ITER 100
      NSTATES   500 #Number of excited states to solve
      RKS_TRIPLETS F #If calculating triplet rather than singlet excited states
      CONVERGENCE [eV] 1E-4 #Convergence criterion of all excitation energies
      MIN_AMPLITUDE 0.01 #The smallest excitation amplitude to print
      RESTART T #If restarting TDDFT calculation. If true, WFN_RESTART_FILE_NAME should be set to previous .tdwfn file
      WFN_RESTART_FILE_NAME 4amp15pbedft-RESTART.tdwfn
      &PRINT
        #&DETAILED_ENERGY #Print excitation energies at every Davidson iteration
        #&END DETAILED_ENERGY
      &END PRINT
    &END TDDFPT
  &END PROPERTIES
&END FORCE_EVAL
