 &CONTROL
    calculation = 'scf'
    prefix = 'C6H6'
    outdir = './outdir'
    pseudo_dir = '/home/cyk/qe_conda/pp'
 /
 &SYSTEM
    ibrav = 6,
    celldm(1) = 32.0,
    celldm(3) = 0.83,
    occupations = 'fixed'
    input_dft = 'pbe0', nqx1 = 1, nqx2 = 1, nqx3=1,
    x_gamma_extrapolation = .true.
    exxdiv_treatment = 'gygi-baldereschi'
    nbnd = 28
    nat = 12,
    ntyp = 2,
    ecutwfc = 100,
    ecutrho = 400
    ecutfock = 200
 /
 &ELECTRONS
    conv_thr = 1.0E-7
    adaptive_thr = .TRUE.
    mixing_mode = 'local-TF'
    mixing_beta = 0.7
    mixing_ndim = 8
    diagonalization = 'david'
    electron_maxstep = 128
 /

ATOMIC_SPECIES
    C   12.00  C_ONCV_PBE-1.2.upf
    H    1.00  H_ONCV_PBE-1.2.upf

ATOMIC_POSITIONS angstrom
C        5.634905178   6.321969786   5.000000000
C        6.847104104   8.420378382   5.000000000
C        8.059072877   7.720810323   5.000000000
C        8.058982717   6.321775745   5.000000000
C        6.846891976   5.622390903   5.000000000
C        5.635014493   7.721010867   5.000000000
H        6.847224737   9.524129211   5.000000000
H        9.014965040   8.272588883   5.000000000
H        9.014832673   5.769918129   5.000000000
H        6.846819373   4.518642564   5.000000000
H        4.678986374   5.770245379   5.000000000
H        4.679200457   8.272939830   5.000000000

K_POINTS gamma
