&CONTROL
  calculation = 'scf'
  prefix = '4amp33iso'
  outdir = './outdir'
  pseudo_dir = '/home/cyk/q-e-qe-7.2/pp/'
/
&SYSTEM
  ibrav = 0
  nat = 47
  ntyp = 5
  input_dft = 'pbe'
  occupations = 'fixed'
  nbnd = 92
  assume_isolated	= 'mt'
  ecutwfc = 50
  ecutrho = 500
  vdw_corr = 'DFT-D3'
  dftd3_version = 4
/
&ELECTRONS
  conv_thr = 1.0E-7
  mixing_mode = 'local-TF'
  mixing_beta = 0.7
  mixing_ndim = 8
  diagonalization = 'david'
  electron_maxstep = 200
/

ATOMIC_SPECIES
  O   16.00  O.pbe-n-rrkjus_psl.1.0.0.UPF
  N   14.00  N.pbe-n-rrkjus_psl.1.0.0.UPF
  C   12.00  C.pbe-n-rrkjus_psl.1.0.0.UPF
  H    1.00  H.pbe-rrkjus_psl.1.0.0.UPF
  F   19.00  F.pbe-n-rrkjus_psl.1.0.0.UPF

CELL_PARAMETERS {angstrom}
       17.00000000     0.00000000     0.00000000
        0.00000000     26.0000000     0.00000000
        0.00000000     0.00000000    26.00000000

ATOMIC_POSITIONS {angstrom}
O            11.1218381711       10.0225203541       12.0845429866
N             9.1331577205       15.0805977300       15.4411206594
C             7.4993245665        9.4229422370        8.3082828070
H             7.0874770640       10.2967270809        8.8197524123
C             6.8623458557        8.9435731569        7.1598243059
H             5.9525872410        9.4455093003        6.8326192781
C             7.3616232394        7.8063213196        6.5065878241
C             8.5257282900        7.1927806970        6.9817024690
H             8.9281905075        6.3212166707        6.4657019942
C             9.1642068430        7.6859421737        8.1198249409
H            10.0853809913        7.2148609551        8.4591542419
C             8.6680028461        8.8136297322        8.8080606646
C             9.4100271543        9.2810949521        9.9821027624
H            10.3265680945        8.7323835548       10.2181296906
C             9.1459859736       10.3212987064       10.8046992058
H             8.2647252698       10.9402149385       10.6602755719
C            10.0814362065       10.6752453623       11.9057246328
C             9.7802342601       11.8454556622       12.7926245552
C            10.8408407047       12.4272367135       13.5184312941
H            11.8442786548       12.0211704083       13.3802537239
C            10.6205852674       13.4991686438       14.3715143895
H            11.4508105642       13.9650731911       14.9057877975
C             9.3137008591       13.9876746464       14.5844983548
C             8.2508759141       13.4209489930       13.8529255113
H             7.2447384246       13.8254359912       13.9677991081
C             8.4921357803       12.3775101090       12.9584694442
H             7.6514985395       11.9628634613       12.4022127283
C             8.1986969579       15.1020866942       16.3223819956
H             7.5771004523       14.2068217273       16.5078014230
C             7.9376009560       16.2549589102       17.2010077055
C             8.7049161381       17.4322979531       17.1386639930
H             9.4679568877       17.5246645430       16.3637089833
C             8.4906369653       18.4550893905       18.0688907946
H             9.0947850916       19.3589669399       18.0337742378
C             7.4896764186       18.3391647134       19.0361706671
C             6.6870097046       17.1887613888       19.0938100190
H             5.8708358634       17.1149006573       19.8174570988
C             6.9218844875       16.1596019000       18.1786966051
H             6.2965546779       15.2638202984       18.2040760053
C             6.7091525870        7.2870860717        5.2431168763
C             7.2477450083       19.4360062336       20.0461019761
F             5.4047241003        7.6687302219        5.1459399140
F             7.3472377201        7.7252516656        4.1187271667
F             6.7277579532        5.9242015146        5.1628226658
F             5.9673641813       19.9219903670       19.9697099755
F             8.0582149567       20.5351730638       19.9427464634
F             7.4142518838       18.9290490001       21.3114740954

K_POINTS gamma
