&CONTROL
  calculation = 'relax'
  prefix = '4amp33iso'
  outdir = './outdir'
  pseudo_dir = '/home/cyk/q-e-qe-7.2/pp/'
  etot_conv_thr = 5.0D-4
  forc_conv_thr = 5.0D-3
/
&SYSTEM
  ibrav = 0
  nat = 47
  ntyp = 5
  input_dft = 'pbe'
  assume_isolated	= 'mt'
  ecutwfc = 50
  ecutrho = 500
  vdw_corr = 'DFT-D3'
  dftd3_version = 4
/
&ELECTRONS
  conv_thr = 1.0E-7
  mixing_mode = 'local-TF'
  mixing_beta = 0.7
  mixing_ndim = 8
  diagonalization = 'david'
  electron_maxstep = 200
/
&IONS
/

ATOMIC_SPECIES
  O   16.00  O.pbe-n-rrkjus_psl.1.0.0.UPF
  N   14.00  N.pbe-n-rrkjus_psl.1.0.0.UPF
  C   12.00  C.pbe-n-rrkjus_psl.1.0.0.UPF
  H    1.00  H.pbe-rrkjus_psl.1.0.0.UPF
  F   19.00  F.pbe-n-rrkjus_psl.1.0.0.UPF

CELL_PARAMETERS {angstrom}
       17.00000000     0.00000000     0.00000000
        0.00000000     26.0000000     0.00000000
        0.00000000     0.00000000    26.00000000

ATOMIC_POSITIONS {angstrom}
O	11.12733397	10.01896262	12.09780686	1	1	1
N	9.134404225	15.07599757	15.44337676	1	1	1
C	7.513816175	9.422580965	8.315133192	1	1	1
H	7.08602055	10.27765398	8.845034756	1	1	1
C	6.874314477	8.954673475	7.163121293	1	1	1
H	5.96187341	9.436945269	6.830726835	1	1	1
C	7.352917297	7.816276262	6.506974198	1	1	1
C	8.510895206	7.202218451	6.989342196	1	1	1
H	8.925865116	6.355294405	6.456289238	1	1	1
C	9.170974375	7.689629587	8.121155271	1	1	1
H	10.10835242	7.232729997	8.442523717	1	1	1
C	8.688780403	8.823841444	8.808117662	1	1	1
C	9.426106002	9.284941779	9.982619229	1	1	1
H	10.32754734	8.706734747	10.21394691	1	1	1
C	9.134605444	10.31690009	10.81742386	1	1	1
H	8.248107318	10.93601539	10.65131791	1	1	1
C	10.08525484	10.66507988	11.91556171	1	1	1
C	9.787083713	11.84315426	12.78922236	1	1	1
C	10.84067385	12.42727612	13.52034161	1	1	1
H	11.84841795	12.04474574	13.38405398	1	1	1
C	10.62118374	13.49305481	14.37972731	1	1	1
H	11.43930507	13.98339498	14.90455806	1	1	1
C	9.32149614	13.9847557	14.59114459	1	1	1
C	8.262063851	13.41214361	13.86351822	1	1	1
H	7.266977056	13.83723758	13.96374794	1	1	1
C	8.501546113	12.37660955	12.9607276	1	1	1
H	7.663478356	11.97134004	12.3976612	1	1	1
C	8.207795273	15.07622589	16.33394827	1	1	1
H	7.57629914	14.18569165	16.54041466	1	1	1
C	7.938188137	16.23525609	17.19368544	1	1	1
C	8.689235439	17.4213226	17.13155706	1	1	1
H	9.44405174	17.49236829	16.351732	1	1	1
C	8.49771758	18.45869967	18.0565589	1	1	1
H	9.073130656	19.37414097	17.94297765	1	1	1
C	7.513679752	18.34538048	19.04584056	1	1	1
C	6.707888053	17.20404034	19.05266097	1	1	1
H	5.879519044	17.14828998	19.74351314	1	1	1
C	6.92293642	16.15635397	18.16041157	1	1	1
H	6.298832931	15.2618001	18.20064195	1	1	1
C	6.684580911	7.303722202	5.243600867	1	1	1
C	7.241350642	19.40963401	20.08159989	1	1	1
F	5.380337922	7.685292962	5.132391283	1	1	1
F	7.326355247	7.761730608	4.128961171	1	1	1
F	6.701409206	5.939676603	5.168223298	1	1	1
F	5.950337972	19.8874305	20.01565384	1	1	1
F	8.061651158	20.49981851	19.95823941	1	1	1
F	7.397716365	18.92095627	21.36191562	1	1	1

K_POINTS gamma
