&GLOBAL
  PROJECT iso4amp15_pbe0
  PRINT_LEVEL LOW
  RUN_TYPE ENERGY
  PREFERRED_DIAG_LIBRARY SL
&END GLOBAL

&FORCE_EVAL
  METHOD Quickstep
  &SUBSYS
    &CELL
      ABC 26 26 26
      PERIODIC NONE #Direction(s) of applied PBC (geometry aspect)
    &END CELL
    &TOPOLOGY                    #Section used to center the atomic coordinates in the given box. Useful for big molecules
      &CENTER_COORDINATES
      &END
    &END
    &COORD
      O   -4.53784594355726     -1.84478708906163      9.45424193525963
      O   -0.10819328986948     -7.30599598818627     10.93573136816041
      O   -12.52158955469701      5.67618429219803     11.80971943314181
      N   -7.46536759614917      2.70651954911230     12.78899027374170
      C   -1.33997665361777     -3.92070022570625     12.97253454271635
      H   -1.66346175331105     -3.02683288638571     13.49048680212803
      C   -0.42013695553459     -4.75972934159128     13.56227242143930
      H   -0.02960594198847     -4.52355761436594     14.54556861271396
      C   0.02578209710425     -5.91241073217377     12.92003371118679
      H   0.74856516319773     -6.55115741928095     13.40920829280633
      C   -0.46496372581129     -6.21785220696234     11.65634802583082
      C   -1.39043884009653     -5.36858641206811     11.05467420448864
      H   -1.75874796799292     -5.62227728160964     10.06717297026446
      C   -1.84138399550123     -4.22152801495399     11.69821368180888
      C   -2.81543413004465     -3.38794104647332     11.00866027326333
      H   -3.05909088657002     -3.67405098831393      9.98804058865144
      C   -3.44954773658044     -2.31214016772459     11.48924906515651
      H   -3.26947441988632     -1.96228108139495     12.49738302565490
      C   -4.39679379608972     -1.56784111654892     10.63305397194686
      C   -5.17650911576874     -0.45078483486394     11.23562031271249
      C   -5.84101492701964      0.41959073337252     10.37138123837179
      H   -5.74090679524318      0.25324861586936      9.30556298349401
      C   -6.59699144830499      1.46523885016993     10.85793682331891
      H   -7.07221939183267      2.15780656111528     10.17265523780119
      C   -6.72565731070734      1.66253473329625     12.23772580596177
      C   -6.04541914963093      0.80743171016511     13.10531189572018
      H   -6.13358736098598      0.97475493768379     14.17195498329642
      C   -5.29042116911736     -0.23803006420847     12.61016636451164
      H   -4.80019960183458     -0.90111925822836     13.31186235607828
      C   -8.58321998759794      3.02274160279631     12.27331854877336
      H   -9.00992836502204      2.45379781543020     11.43638983319449
      C   -9.39147825909441      4.13932838633543     12.75597576582977
      C   -10.58169322907844      4.42357939314728     12.10167838482683
      H   -10.90387004126680      3.82952777942244     11.25326060002918
      C   -11.38732948577038      5.47970105944865     12.52069328322816
      C   -10.99444057964077      6.24822986526399     13.60993838156293
      H   -11.60320624207946      7.07183579946071     13.95795525841095
      C   -9.79909437566526      5.95431689119460     14.26330574323547
      H   -9.50402125808979      6.56088791293569     15.11191894596206
      C   -8.99442897852001      4.91534511496040     13.84964836693224
      H   -8.06453060470071      4.68137666686838     14.35139746504604
      C   0.83157987242091     -8.18838992657741     11.50463553936339
      H   0.97767622090303     -8.98473997264161     10.77724906268463
      H   0.46175837775478     -8.61985086067673     12.44073916647839
      H   1.78901363018881     -7.69008590080659     11.68963599980589
      C   -13.38218834636548      6.71263051877833     12.22358977672797
      H   -14.22923216778955      6.69329360190185     11.54044619635546
      H   -12.89259237140553      7.69015270505226     12.16177959734686
      H   -13.73994161173957      6.55141333482563     13.24587888257891
    &END COORD
    &KIND O
      ELEMENT O
      BASIS_SET 6-311ppG2d2p
      POTENTIAL ALL
    &END KIND
    &KIND N
      ELEMENT N
      BASIS_SET 6-311ppG2d2p
      POTENTIAL ALL
    &END KIND
    &KIND C
      ELEMENT C
      BASIS_SET 6-311ppG2d2p
      POTENTIAL ALL
    &END KIND
    &KIND H
      ELEMENT H
      BASIS_SET 6-311ppG2d2p        
      POTENTIAL ALL
    &END KIND
  &END SUBSYS

  &DFT
    POTENTIAL_FILE_NAME POTENTIAL
    BASIS_SET_FILE_NAME ALL_BASIS_SETS
#   WFN_RESTART_FILE_NAME 4amp1_pbe0-RESTART.wfn
    CHARGE    0 #Net charge
    MULTIPLICITY    1 #Spin multiplicity
    &QS
      EPS_DEFAULT 1.0E-10
      METHOD GAPW
      EPS_FILTER_MATRIX 0	
      EPS_PGF_ORB 1.0E-15
    &END QS
    &POISSON
      PERIODIC NONE #Direction(s) of PBC for calculating electrostatics
      PSOLVER WAVELET #The way to solve Poisson equation
    &END POISSON
    &XC
      &HF
        FRACTION 0.25
        &MEMORY
          MAX_MEMORY 5
        &END MEMORY
        &SCREENING
          EPS_SCHWARZ 1.0E-10
        &END SCREENING
      &END HF
      &XC_FUNCTIONAL PBE
        &PBE
          SCALE_C 1.0
          SCALE_X 0.75
        &END PBE
      &END XC_FUNCTIONAL
    &END XC
    &MGRID
      CUTOFF  400
      REL_CUTOFF  60
    &END MGRID
    &SCF
      MAX_SCF 20
      EPS_SCF 1.0E-05 #Convergence threshold of density matrix of inner SCF
  #   SCF_GUESS RESTART #Use wavefunction from WFN_RESTART_FILE_NAME file as initial guess
      &OUTER_SCF
         MAX_SCF 20
         EPS_SCF 1.0E-5
      &END OUTER_SCF
      &OT T
        PRECONDITIONER FULL_ALL
        ENERGY_GAP 0.001
        MINIMIZER DIIS
        LINESEARCH 2PNT
      &END OT
      &PRINT
        &RESTART #Note: Use "&RESTART OFF" can prevent generating .wfn file
          BACKUP_COPIES 0 #Maximum number of backup copies of wfn file. 0 means never
        &END RESTART
      &END PRINT
    &END SCF
    &PRINT
      &MO_MOLDEN #Exporting .molden file containing wavefunction information
        NDIGITS 9 #Output orbital coefficients if absolute value is larger than 1E-9
      &END MO_MOLDEN
      &MO_CUBES
        APPEND T
        NHOMO 1
        NLUMO 1
        WRITE_CUBE T
        &EACH
          MD 10
        &END
      &END MO_CUBES
    &END PRINT
  &END DFT
  &PROPERTIES
    &TDDFPT #TDDFT calculation with Tamm-Dancoff approximation
      NSTATES   50 #Number of excited states to solve
      RKS_TRIPLETS F #If calculating triplet rather than singlet excited states
      CONVERGENCE [eV] 1E-4 #Convergence criterion of all excitation energies
      MIN_AMPLITUDE 0.01 #The smallest excitation amplitude to print
#     RESTART T #If restarting TDDFT calculation. If true, WFN_RESTART_FILE_NAME should be set to previous .tdwfn file
#     WFN_RESTART_FILE_NAME 4amp15_pbe0-RESTART.tdwfn
      &PRINT
        #&DETAILED_ENERGY #Print excitation energies at every Davidson iteration
        #&END DETAILED_ENERGY
      &END PRINT
    &END TDDFPT
  &END PROPERTIES
&END FORCE_EVAL
