&CONTROL
  calculation = 'scf'
  prefix = '4amp34iso'
  outdir = './outdir'
  pseudo_dir = '/home/cyk/q-e-qe-7.2/pp/'
/
&SYSTEM
  ibrav = 0
  nat = 49
  ntyp = 5
  input_dft = 'pbe'
  occupations = 'fixed'
  nbnd = 100
  assume_isolated	= 'mt'
  ecutwfc = 50
  ecutrho = 500
  vdw_corr = 'DFT-D3'
  dftd3_version = 4
/
&ELECTRONS
  conv_thr = 1.0E-7
  mixing_mode = 'local-TF'
  mixing_beta = 0.7
  mixing_ndim = 8
  diagonalization = 'david'
  electron_maxstep = 200
/

ATOMIC_SPECIES
  O   16.00  O.pbe-n-rrkjus_psl.1.0.0.UPF
  N   14.00  N.pbe-n-rrkjus_psl.1.0.0.UPF
  C   12.00  C.pbe-n-rrkjus_psl.1.0.0.UPF
  H    1.00  H.pbe-rrkjus_psl.1.0.0.UPF
  F   19.00  F.pbe-n-rrkjus_psl.1.0.0.UPF

CELL_PARAMETERS {angstrom}
       30.00000000     0.00000000     0.00000000
        0.00000000     18.0000000     0.00000000
        0.00000000     0.00000000    24.00000000

ATOMIC_POSITIONS {angstrom}
O            13.3313756718        5.3034501837        9.5292832535
O             7.5746578217       10.5650826310        6.4167384645
O            22.5317669414        9.8599840365       17.0695463245
N            17.7661499218        7.5967754199       13.4639717365
C            10.3857455425        9.4721188497        8.5298982138
H            11.1153677496        9.9122809876        9.2163330927
C             9.4246013210       10.2924072759        7.9479345839
H             9.3836447684       11.3642128351        8.1544192348
C             8.5050074645        9.7261561259        7.0650821446
C             8.5033854925        8.3662755192        6.7650023434
H             7.7522679458        7.9633523331        6.0815181232
C             9.4576596682        7.5505617138        7.3653459043
H             9.4794015905        6.4792870684        7.1388403551
C            10.4237381328        8.0898470357        8.2428778548
C            11.4202736113        7.1921192417        8.7949739534
H            11.3536453856        6.1429396715        8.4899515339
C            12.4421082945        7.5049673445        9.6215954880
H            12.6011439071        8.5271815760        9.9705883528
C            13.4066318368        6.4498571569        9.9993762987
C            14.5122273669        6.8146353801       10.9273907527
C            15.6455001246        5.9806710184       10.9470992318
H            15.6581341726        5.1154267379       10.2809913230
C            16.7031305143        6.2493132885       11.7963030229
H            17.5954220255        5.6197352251       11.8175447536
C            16.6587824957        7.3717290900       12.6479784799
C            15.5103000254        8.1916860669       12.6644744540
H            15.4414923913        9.0193650808       13.3767437815
C            14.4541919888        7.9180709618       11.8004621944
H            13.5597052673        8.5455125502       11.8410216087
C            18.1567792019        8.7963990439       13.7052653819
H            17.6765001437        9.6748526346       13.2325975080
C            19.2849125554        9.0728380951       14.5819102598
C            20.0509550614        8.0203776773       15.1216981181
H            19.7780672708        6.9903724844       14.8789226473
C            21.1353406319        8.3011411977       15.9369926917
H            21.7481580934        7.5066605750       16.3674370917
C            21.4531053168        9.6345036740       16.2049315320
C            20.7052332321       10.6973506020       15.6987202403
H            20.9507705688       11.7292364563       15.9512453633
C            19.6200910384       10.4046067049       14.8745212461
H            19.0231615540       11.2182180720       14.4491931753
C            23.6455989690       10.4465435586       16.5664634782
F            23.4615874243       11.7505297206       16.2049048961
F            24.5592610283       10.4094130310       17.5448809180
F            24.1672298094        9.8098865962       15.4752773898
C             6.4269706701       10.8672552304        7.0834609232
F             5.7452412763        9.7449983069        7.4309364529
F             5.6940923558       11.6379796157        6.2638950975
F             6.6067073581       11.5652063174        8.2421137302

K_POINTS gamma
