&CONTROL
  calculation = 'relax'
  prefix = '4amp34iso'
  outdir = './outdir'
  pseudo_dir = '/home/cyk/q-e-qe-7.2/pp/'
  etot_conv_thr = 1.0D-3
  forc_conv_thr = 1.0D-2
/
&SYSTEM
  ibrav = 0
  nat = 49
  ntyp = 5
  input_dft = 'pbe'
  assume_isolated	= 'mt'
  ecutwfc = 50
  ecutrho = 500
  vdw_corr = 'DFT-D3'
  dftd3_version = 4
/
&ELECTRONS
  conv_thr = 1.0E-6
  mixing_mode = 'local-TF'
  mixing_beta = 0.7
  mixing_ndim = 8
  diagonalization = 'david'
  electron_maxstep = 200
/
&IONS
/

ATOMIC_SPECIES
  O   16.00  O.pbe-n-rrkjus_psl.1.0.0.UPF
  N   14.00  N.pbe-n-rrkjus_psl.1.0.0.UPF
  C   12.00  C.pbe-n-rrkjus_psl.1.0.0.UPF
  H    1.00  H.pbe-rrkjus_psl.1.0.0.UPF
  F   19.00  F.pbe-n-rrkjus_psl.1.0.0.UPF

CELL_PARAMETERS {angstrom}
       30.00000000     0.00000000     0.00000000
        0.00000000     18.0000000     0.00000000
        0.00000000     0.00000000    24.00000000

ATOMIC_POSITIONS {angstrom}
O	13.336276	5.333777	9.541132	1	1	1
O	7.574462	10.547329	6.417514	1	1	1
O	22.519713	9.872812	17.079158	1	1	1
N	17.764981	7.606191	13.470603	1	1	1
C	10.36743	9.463983	8.523813	1	1	1
H	11.091543	9.902585	9.197815	1	1	1
C	9.415858	10.279265	7.941955	1	1	1
H	9.383247	11.340829	8.145281	1	1	1
C	8.492395	9.720974	7.073176	1	1	1
C	8.499456	8.372291	6.779342	1	1	1
H	7.766829	7.970936	6.09232	1	1	1
C	9.460583	7.56689	7.367247	1	1	1
H	9.483202	6.508131	7.139258	1	1	1
C	10.410277	8.09469	8.243827	1	1	1
C	11.421984	7.196814	8.800046	1	1	1
H	11.357963	6.155595	8.49638	1	1	1
C	12.431903	7.50667	9.614016	1	1	1
H	12.595194	8.518115	9.960671	1	1	1
C	13.407313	6.455905	10.001058	1	1	1
C	14.515554	6.817249	10.933048	1	1	1
C	15.642296	5.99362	10.95562	1	1	1
H	15.659291	5.133161	10.299771	1	1	1
C	16.698323	6.268138	11.797682	1	1	1
H	17.577607	5.637498	11.82039	1	1	1
C	16.656963	7.379991	12.64139	1	1	1
C	15.51457	8.180593	12.656127	1	1	1
H	15.440857	9.001696	13.35807	1	1	1
C	14.460746	7.905125	11.800551	1	1	1
H	13.578539	8.530944	11.841217	1	1	1
C	18.159346	8.787839	13.701198	1	1	1
H	17.67979	9.659822	13.239306	1	1	1
C	19.299606	9.071912	14.57989	1	1	1
C	20.059785	8.034858	15.122519	1	1	1
H	19.788018	7.015036	14.885301	1	1	1
C	21.141277	8.31615	15.932536	1	1	1
H	21.752948	7.531801	16.357762	1	1	1
C	21.452661	9.637605	16.208908	1	1	1
C	20.706295	10.684749	15.701248	1	1	1
H	20.963867	11.704834	15.947834	1	1	1
C	19.633082	10.390662	14.874375	1	1	1
H	19.043015	11.199563	14.459082	1	1	1
C	23.630639	10.440109	16.575773	1	1	1
F	23.442543	11.725193	16.232704	1	1	1
F	24.568934	10.39555	17.507409	1	1	1
F	24.073607	9.806982	15.485193	1	1	1
C	6.443755	10.861016	7.075824	1	1	1
F	5.738053	9.776815	7.420297	1	1	1
F	5.700465	11.613878	6.280634	1	1	1
F	6.684182	11.547201	8.202384	1	1	1

K_POINTS gamma
