&CONTROL
  calculation = 'scf'
  prefix = '4amp34iso'
  outdir = './outdir'
  pseudo_dir = '/home/cyk/q-e-qe-7.2/pp/'
/
&SYSTEM
  ibrav = 0
  nat = 47
  ntyp = 5
  input_dft = 'pbe'
  occupations = 'fixed'
  nbnd = 92
  assume_isolated	= 'mt'
  ecutwfc = 50
  ecutrho = 500
  vdw_corr = 'DFT-D3'
  dftd3_version = 4
/
&ELECTRONS
  conv_thr = 1.0E-7
  mixing_mode = 'local-TF'
  mixing_beta = 0.7
  mixing_ndim = 8
  diagonalization = 'david'
  electron_maxstep = 200
/

ATOMIC_SPECIES
  O   16.00  O.pbe-n-rrkjus_psl.1.0.0.UPF
  N   14.00  N.pbe-n-rrkjus_psl.1.0.0.UPF
  C   12.00  C.pbe-n-rrkjus_psl.1.0.0.UPF
  H    1.00  H.pbe-rrkjus_psl.1.0.0.UPF
  F   19.00  F.pbe-n-rrkjus_psl.1.0.0.UPF

CELL_PARAMETERS {angstrom}
       30.00000000     0.00000000     0.00000000
        0.00000000     18.0000000     0.00000000
        0.00000000     0.00000000    24.00000000

ATOMIC_POSITIONS {angstrom}
  O   7.46438971510198      0.65762030658587      8.17458386449896
  O   1.70257548802706      5.87117267814383      5.05096625943162
  O   16.64782653630775      5.19665581907891     15.71261012724992
  N   11.89309449188904      2.93003433037814     12.10405521185347
  C   4.49554423053183      4.78782622703601      7.15726516578443
  H   5.21965661308028      5.22642802427766      7.83126677608725
  C   3.54397143069749      5.60310852349576      6.57540675500227
  H   3.51136079600101      6.66467273227750      6.77873329877071
  C   2.62050862412163      5.04481772538128      5.70662786199704
  C   2.62757015793902      3.69613454701888      5.41279408510405
  H   1.89494330688632      3.29477990289862      4.72577148256661
  C   3.58869733569214      2.89073316301436      6.00069913114679
  H   3.61131593048656      1.83197432100452      5.77270969336938
  C   4.53839124375031      3.41853350626478      6.87727912144655
  C   5.55009761382008      2.52065699847942      7.43349833698007
  H   5.48607708534928      1.47943797540195      7.12983151844216
  C   6.56001638272070      2.83051376277204      8.24746794046554
  H   6.72330814354796      3.84195793772878      8.59412307477694
  C   7.53542680458180      1.77974857665605      8.63451006227851
  C   8.64366776690315      2.14109281740591      9.56649954525215
  C   9.77040983113034      1.31746386171465      9.58907219952280
  H   9.78740439454983      0.45700443555698      8.93322304567137
  C   10.82643707081668      1.59198123324808     10.43113415799833
  H   11.70572042963503      0.96134185157790     10.45384236106132
  C   10.78507652812238      2.70383481982367     11.27484214698955
  C   9.64268346026685      3.50443681344155     11.28957872343352
  H   9.56897067442711      4.32553975457463     11.99152171260708
  C   8.58885964241389      3.22896830718122     10.43400341199919
  H   7.70665300854837      3.85478718164102     10.47466857869415
  C   12.28745967205898      4.11168211022105     12.33464975523568
  H   11.80790348639661      4.98366523001858     11.87275752150739
  C   13.42772032303773      4.39575501183908     13.21334225111739
  C   14.18789937624046      3.35870159720236     13.75597116848387
  H   13.91613198461472      2.33887898234892     13.51875269013081
  C   15.26939094688110      3.63999347118003     14.56598789348529
  H   15.88106146159128      2.85564469401738     14.99121386119307
  C   15.58077505817699      4.96144850550171     14.84236014681638
  C   14.83440855434068      6.00859284943570     14.33470008578290
  H   15.09198116906867      7.02867748945371     14.58128565686308
  C   13.76119539715198      5.71450542982442     13.50782689727812
  H   13.17112900441854      6.52340662087074     13.09253436753860
  C   17.75875296168972      5.76395231104528     15.20922485305290
  F   17.57065729081036      7.04903634163604     14.86615573004506
  F   18.69704810472091      5.71939310844898     16.14086118236246
  F   18.20172130939832      5.13082564797191     14.11864539714359
  C   0.57186909442908      6.18485897115586      5.70927576033769
  F   -0.13383348621044      5.10065841399366      6.05374892526229
  F   -0.17142101879553      6.93772187413659      4.91408565939757
  F   0.81229557263369      6.87104420563793      6.83583554648379

K_POINTS gamma
