&CONTROL
  calculation = 'relax'
  prefix = '4amp34'
  outdir = './outdir'
  pseudo_dir = '/opt/qe/bin/pp/'
/
&SYSTEM
  a     =  2.07553e+01
  b     =  5.76339e+00
  c     =  1.71143e+01
  cosac = -1.58190e-02
  ibrav = -12
  nat   = 224
  ntyp  = 5
  input_dft = 'pbe'
  ecutwfc = 50
  ecutrho = 500
/
&ELECTRONS
  conv_thr = 1.0E-10
  mixing_mode = 'local-TF'
  mixing_beta = 0.7
  mixing_ndim = 8
  diagonalization = 'david'
  electron_maxstep = 128
/
&IONS
/

ATOMIC_SPECIES
  O   16.00  O.pbe-n-rrkjus_psl.1.0.0.UPF
  N   14.00  N.pbe-n-rrkjus_psl.1.0.0.UPF
  C   12.00  C.pbe-n-rrkjus_psl.1.0.0.UPF
  H    1.00  H.pbe-rrkjus_psl.1.0.0.UPF
  F  18.9984  F.pbe-n-rrkjus_psl.1.0.0.UPF

ATOMIC_POSITIONS {angstrom}
O	7.64486	0.80837	8.01383	1	1	1
O	12.97508	3.69007	0.54225	1	1	1
O	12.83971	4.95502	9.09833	1	1	1
O	7.50949	2.07332	16.56991	1	1	1
O	1.62718	0.04271	5.55170	1	1	1
O	18.99276	2.92440	3.00438	1	1	1
O	18.85739	5.72068	11.56046	1	1	1
O	1.49181	2.83899	14.10778	1	1	1
O	16.39033	5.19852	15.64599	1	1	1
O	3.95888	2.31683	10.02225	1	1	1
O	4.09424	0.56487	1.46617	1	1	1
O	16.52569	3.44657	7.08991	1	1	1
N	11.70834	3.00428	12.17222	1	1	1
N	8.64086	0.12259	13.49602	1	1	1
N	8.77622	2.75911	4.93994	1	1	1
N	11.84371	5.64080	3.61614	1	1	1
C	4.53668	4.73296	7.28174	1	1	1
C	16.08325	1.85126	1.27434	1	1	1
C	15.94789	1.03043	9.83042	1	1	1
C	4.40132	3.91213	15.83782	1	1	1
H	5.12062	5.06546	7.92375	1	1	1
H	15.49931	2.18376	0.63233	1	1	1
H	15.36395	0.69794	9.18841	1	1	1
H	4.98526	3.57963	16.47983	1	1	1
C	3.48412	5.45799	6.90527	1	1	1
C	17.13582	2.57629	1.65081	1	1	1
C	17.00045	0.30540	10.20689	1	1	1
C	3.34875	3.18710	15.46135	1	1	1
H	3.33259	0.52656	7.29214	1	1	1
H	17.28735	3.40826	1.26394	1	1	1
H	17.15198	5.23683	9.82002	1	1	1
H	3.19722	2.35513	15.84822	1	1	1
C	2.65796	5.00387	5.99336	1	1	1
C	17.96198	2.12217	2.56272	1	1	1
C	17.82661	0.75952	11.11880	1	1	1
C	2.52259	3.64122	14.54944	1	1	1
C	2.84396	3.82352	5.38759	1	1	1
C	17.77598	0.94182	3.16849	1	1	1
C	17.64061	1.93987	11.72457	1	1	1
C	2.70859	4.82157	13.94367	1	1	1
H	2.26332	3.52060	4.72706	1	1	1
H	18.35662	0.63891	3.82902	1	1	1
H	18.22125	2.24279	12.38510	1	1	1
H	2.12795	5.12448	13.28314	1	1	1
C	3.89844	3.09962	5.77416	1	1	1
C	16.72150	0.21792	2.78192	1	1	1
C	16.58613	2.66378	11.33800	1	1	1
C	3.76307	5.54547	14.33024	1	1	1
H	4.04347	2.27765	5.36427	1	1	1
H	16.57647	5.15934	3.19181	1	1	1
H	16.44110	3.48574	11.74789	1	1	1
H	3.90810	0.60405	13.92035	1	1	1
C	4.76105	3.50420	6.73073	1	1	1
C	15.85889	0.62250	1.82535	1	1	1
C	15.72352	2.25919	10.38143	1	1	1
C	4.62568	5.14089	15.28681	1	1	1
C	5.82067	2.66430	7.18591	1	1	1
C	14.79927	5.54600	1.37017	1	1	1
C	14.66390	3.09909	9.92625	1	1	1
C	5.68530	0.21740	15.74199	1	1	1
H	5.84198	1.81163	6.81343	1	1	1
H	14.77795	4.69332	1.74265	1	1	1
H	14.64259	3.95176	10.29873	1	1	1
H	5.70662	1.07007	15.36951	1	1	1
C	6.74541	2.91674	8.03296	1	1	1
C	13.87453	0.03504	0.52312	1	1	1
C	13.73916	2.84665	9.07920	1	1	1
C	6.61004	5.72835	16.58904	1	1	1
H	6.80332	3.77436	8.38646	1	1	1
H	13.81661	0.89267	0.16962	1	1	1
H	13.68125	1.98903	8.72570	1	1	1
H	6.66796	4.87072	16.94254	1	1	1
C	7.69551	1.92906	8.45734	1	1	1
C	12.92442	4.81076	0.09874	1	1	1
C	12.78906	3.83433	8.65482	1	1	1
C	7.56015	0.95263	17.01342	1	1	1
C	8.70108	2.27066	9.44283	1	1	1
C	11.64812	5.15236	16.22541	1	1	1
C	11.78349	3.49273	7.66933	1	1	1
C	8.83645	0.61104	0.88675	1	1	1
C	9.64711	1.37042	9.74418	1	1	1
C	10.70209	4.25211	15.92406	1	1	1
C	10.83746	4.39297	7.36798	1	1	1
C	9.78248	1.51128	1.18810	1	1	1
H	9.61645	0.53913	9.32741	1	1	1
H	10.73275	3.42082	16.34083	1	1	1
H	10.86812	5.22427	7.78475	1	1	1
H	9.75182	2.34257	0.77133	1	1	1
C	10.63962	1.61139	10.62374	1	1	1
C	9.70958	4.49308	15.04450	1	1	1
C	9.84495	4.15200	6.48842	1	1	1
C	10.77499	1.27031	2.06766	1	1	1
H	11.28658	0.96482	10.79228	1	1	1
H	9.06263	3.84651	14.87596	1	1	1
H	9.19799	4.79858	6.31988	1	1	1
H	11.42194	1.91688	2.23620	1	1	1
C	10.68349	2.81651	11.26185	1	1	1
C	9.66571	5.69821	14.40638	1	1	1
C	9.80108	2.94688	5.85031	1	1	1
C	10.81886	0.06518	2.70578	1	1	1
C	9.71213	3.70517	11.00021	1	1	1
C	10.63707	0.82347	14.66803	1	1	1
C	10.77244	2.05822	6.11195	1	1	1
C	9.84750	4.93992	2.44413	1	1	1
H	9.70600	4.51510	11.45579	1	1	1
H	10.64320	1.63340	14.21245	1	1	1
H	10.77857	1.24829	5.65637	1	1	1
H	9.84137	4.12999	2.89971	1	1	1
C	8.75502	3.45625	10.10011	1	1	1
C	11.59418	0.57455	15.56813	1	1	1
C	11.72955	2.30714	7.01205	1	1	1
C	8.89039	5.18884	1.54403	1	1	1
H	8.11419	4.10685	9.92245	1	1	1
H	12.23501	1.22515	15.74579	1	1	1
H	12.37038	1.65654	7.18971	1	1	1
H	8.24956	4.53824	1.36637	1	1	1
C	12.29412	4.10232	12.17924	1	1	1
C	8.05509	1.22063	13.48900	1	1	1
C	8.19045	1.66107	4.93292	1	1	1
C	12.42948	4.54276	3.62316	1	1	1
H	12.01635	4.76181	11.58483	1	1	1
H	8.33285	1.88012	14.08341	1	1	1
H	8.46822	1.00158	5.52733	1	1	1
H	12.15172	3.88327	3.02875	1	1	1
C	13.36573	4.38300	13.05709	1	1	1
C	6.98347	1.50131	12.61115	1	1	1
C	7.11884	1.38039	4.05507	1	1	1
C	13.50110	4.26209	4.50101	1	1	1
C	13.75994	3.50351	13.98457	1	1	1
C	6.58927	0.62181	11.68367	1	1	1
C	6.72463	2.25988	3.12759	1	1	1
C	13.89530	5.14158	5.42849	1	1	1
H	13.31594	2.68842	14.05370	1	1	1
H	7.03326	5.57012	11.61454	1	1	1
H	7.16862	3.07497	3.05846	1	1	1
H	13.45131	0.19328	5.49762	1	1	1
C	14.78472	3.76760	14.81793	1	1	1
C	5.56448	0.88590	10.85031	1	1	1
C	5.69985	1.99579	2.29423	1	1	1
C	14.92009	4.87749	6.26185	1	1	1
H	15.04860	3.14556	15.45592	1	1	1
H	5.30060	0.26387	10.21231	1	1	1
H	5.43597	2.61783	1.65623	1	1	1
H	15.18397	5.49953	6.89985	1	1	1
C	15.41119	4.93355	14.70841	1	1	1
C	4.93801	2.05185	10.95982	1	1	1
C	5.07338	0.82984	2.40375	1	1	1
C	15.54656	3.71154	6.15233	1	1	1
C	15.06642	0.06519	13.80506	1	1	1
C	5.28279	2.94689	11.86318	1	1	1
C	5.41815	5.69820	3.30710	1	1	1
C	15.20178	2.81651	5.24898	1	1	1
H	15.52700	0.87016	13.74070	1	1	1
H	4.82221	3.75185	11.92753	1	1	1
H	4.95757	4.89323	3.37146	1	1	1
H	15.66236	2.01154	5.18463	1	1	1
C	14.03149	5.56104	12.96982	1	1	1
C	6.31772	2.67934	12.69842	1	1	1
C	6.45308	0.20235	4.14234	1	1	1
C	14.16685	3.08405	4.41374	1	1	1
H	13.77740	0.42511	12.33111	1	1	1
H	6.57181	3.30681	13.33713	1	1	1
H	6.70717	5.33828	4.78105	1	1	1
H	13.91276	2.45658	3.77503	1	1	1
C	17.55704	5.50923	15.35664	1	1	1
C	2.79217	2.62753	10.31160	1	1	1
C	2.92753	0.25417	1.75552	1	1	1
C	17.69240	3.13586	6.80056	1	1	1
F	17.30099	1.13953	15.32325	1	1	1
F	3.04822	4.02123	10.34498	1	1	1
F	3.18358	4.62386	1.78891	1	1	1
F	17.43635	1.74216	6.76717	1	1	1
F	18.32263	5.73630	16.29095	1	1	1
F	2.02657	2.85461	9.37729	1	1	1
F	2.16194	0.02709	0.82121	1	1	1
F	18.45800	2.90878	7.73487	1	1	1
F	17.99396	4.92943	14.28968	1	1	1
F	2.35524	2.04773	11.37856	1	1	1
F	2.49061	0.83396	2.82248	1	1	1
F	18.12933	3.71566	5.73360	1	1	1
C	17.52066	5.26832	15.42682	1	1	1
C	2.82854	2.38662	10.24142	1	1	1
C	2.96391	0.49508	1.68534	1	1	1
C	17.65603	3.37677	6.87074	1	1	1
F	17.70609	3.87415	15.29964	1	1	1
F	2.64311	0.99246	10.36860	1	1	1
F	2.77848	1.88924	1.81252	1	1	1
F	17.84146	4.77093	6.74356	1	1	1
F	18.31092	5.20088	16.37825	1	1	1
F	2.03829	2.31919	9.28999	1	1	1
F	2.17365	0.56251	0.73391	1	1	1
F	18.44628	3.44420	7.82217	1	1	1
F	18.02784	0.13429	14.40467	1	1	1
F	2.32136	3.01598	11.26357	1	1	1
F	2.45673	5.62910	2.70749	1	1	1
F	18.16321	2.74741	5.84859	1	1	1
C	0.53009	5.74264	6.20506	1	1	1
C	20.08984	2.86095	2.35102	1	1	1
C	19.95448	0.02075	10.90710	1	1	1
C	0.39473	2.90244	14.76114	1	1	1
F	0.18287	4.75134	6.78155	1	1	1
F	20.43707	1.86964	1.77453	1	1	1
F	20.30170	1.01205	10.33061	1	1	1
F	0.04750	3.89375	15.33763	1	1	1
F	20.29934	0.59824	5.58397	1	1	1
F	0.32060	3.47994	2.97211	1	1	1
F	0.18523	5.16515	11.52819	1	1	1
F	20.16397	2.28346	14.14005	1	1	1
F	0.87119	1.12732	7.00230	1	1	1
F	19.74874	4.00901	1.55378	1	1	1
F	19.61338	4.63607	10.10986	1	1	1
F	0.73583	1.75438	15.55838	1	1	1
F	0.06063	4.78246	5.49814	1	1	1
F	20.55931	1.90077	3.05794	1	1	1
F	20.42394	0.98093	11.61402	1	1	1
F	-0.07474	3.86262	14.05422	1	1	1
F	20.56685	0.94462	5.85578	1	1	1
F	0.05309	3.82632	2.70030	1	1	1
F	-0.08228	4.81877	11.25638	1	1	1
F	20.43148	1.93708	14.41186	1	1	1
F	0.55822	0.03862	7.33964	1	1	1
F	20.06172	2.92031	1.21644	1	1	1
F	19.92635	5.72478	9.77251	1	1	1
F	0.42285	2.84308	15.89572	1	1	1


K_POINTS gamma
