&CONTROL
  calculation = 'relax'
  prefix = '4amp34'
  outdir = './outdir'
  pseudo_dir = '/opt/qe/bin/pp/'
/
&SYSTEM
  a     =  2.07553e+01
  b     =  5.76339e+00
  c     =  1.71143e+01
  cosac = -1.58190e-02
  ibrav = -12
  nat   = 224
  ntyp  = 5
  input_dft = 'pbe'
  ecutwfc = 50
  ecutrho = 500
/
&ELECTRONS
  conv_thr = 1.0E-10
  mixing_mode = 'local-TF'
  mixing_beta = 0.7
  mixing_ndim = 8
  diagonalization = 'david'
  electron_maxstep = 128
/
&IONS
/

ATOMIC_SPECIES
  O   16.00  O.pbe-n-rrkjus_psl.1.0.0.UPF
  N   14.00  N.pbe-n-rrkjus_psl.1.0.0.UPF
  C   12.00  C.pbe-n-rrkjus_psl.1.0.0.UPF
  H    1.00  H.pbe-rrkjus_psl.1.0.0.UPF
  F  18.9984  F.pbe-n-rrkjus_psl.1.0.0.UPF

ATOMIC_POSITIONS {angstrom}
O	7.644859	0.808373	8.013827	1	1	1
O	12.975075	3.690068	0.542252	1	1	1
O	12.83971	4.955017	9.098331	1	1	1
O	7.509493	2.073322	16.569907	1	1	1
O	1.627177	0.042707	5.551698	1	1	1
O	18.992757	2.924402	3.004382	1	1	1
O	18.857392	5.720683	11.560461	1	1	1
O	1.491812	2.838988	14.107777	1	1	1
O	16.390329	5.19852	15.645989	1	1	1
O	3.958875	2.316825	10.022249	1	1	1
O	4.09424	0.56487	1.46617	1	1	1
O	16.525694	3.446565	7.08991	1	1	1
N	11.708344	3.004282	12.172221	1	1	1
N	8.640859	0.122587	13.496017	1	1	1
N	8.776224	2.759108	4.939938	1	1	1
N	11.84371	5.640803	3.616141	1	1	1
C	4.536681	4.732959	7.281737	1	1	1
C	16.083253	1.851264	1.274342	1	1	1
C	15.947888	1.030431	9.830422	1	1	1
C	4.401316	3.912126	15.837816	1	1	1
H	5.120624	5.065455	7.923751	1	1	1
H	15.499311	2.18376	0.632328	1	1	1
H	15.363945	0.697935	9.188408	1	1	1
H	4.985258	3.57963	16.47983	1	1	1
C	3.484117	5.457988	6.905269	1	1	1
C	17.135817	2.576293	1.65081	1	1	1
C	17.000452	0.305402	10.206889	1	1	1
C	3.348751	3.187097	15.461349	1	1	1
H	3.332585	0.526561	7.292141	1	1	1
H	17.28735	3.408256	1.263938	1	1	1
H	17.151984	5.236829	9.820018	1	1	1
H	3.197219	2.355134	15.84822	1	1	1
C	2.657955	5.003867	5.993362	1	1	1
C	17.96198	2.122172	2.562717	1	1	1
C	17.826614	0.759523	11.118796	1	1	1
C	2.522589	3.641218	14.549442	1	1	1
C	2.843958	3.823519	5.387592	1	1	1
C	17.775976	0.941824	3.168487	1	1	1
C	17.64061	1.939871	11.724567	1	1	1
C	2.708593	4.821566	13.943671	1	1	1
H	2.263319	3.520601	4.727063	1	1	1
H	18.356616	0.638906	3.829017	1	1	1
H	18.22125	2.242789	12.385096	1	1	1
H	2.127953	5.124484	13.283142	1	1	1
C	3.898438	3.099615	5.774156	1	1	1
C	16.721496	0.21792	2.781924	1	1	1
C	16.58613	2.663775	11.338003	1	1	1
C	3.763073	5.54547	14.330235	1	1	1
H	4.043465	2.277646	5.364268	1	1	1
H	16.576469	5.159341	3.191811	1	1	1
H	16.441104	3.485744	11.74789	1	1	1
H	3.908099	0.604049	13.920347	1	1	1
C	4.761046	3.504199	6.730725	1	1	1
C	15.858888	0.622504	1.825354	1	1	1
C	15.723523	2.259191	10.381433	1	1	1
C	4.625681	5.140886	15.286805	1	1	1
C	5.820667	2.6643	7.185909	1	1	1
C	14.799267	5.545995	1.370171	1	1	1
C	14.663902	3.09909	9.92625	1	1	1
C	5.685302	0.217395	15.741988	1	1	1
H	5.841981	1.811629	6.813428	1	1	1
H	14.777953	4.693324	1.742651	1	1	1
H	14.642587	3.951761	10.29873	1	1	1
H	5.706616	1.070066	15.369508	1	1	1
C	6.745406	2.916736	8.032961	1	1	1
C	13.874529	0.035041	0.523119	1	1	1
C	13.739163	2.846654	9.079198	1	1	1
C	6.61004	5.728349	16.58904	1	1	1
H	6.803324	3.774363	8.386464	1	1	1
H	13.81661	0.892668	0.169616	1	1	1
H	13.681245	1.989027	8.725695	1	1	1
H	6.667958	4.870722	16.942543	1	1	1
C	7.695511	1.929064	8.457342	1	1	1
C	12.924424	4.810759	0.098737	1	1	1
C	12.789058	3.834326	8.654816	1	1	1
C	7.560145	0.952631	17.013421	1	1	1
C	8.70108	2.27066	9.442831	1	1	1
C	11.648123	5.152355	16.225406	1	1	1
C	11.783489	3.49273	7.669327	1	1	1
C	8.836446	0.611035	0.886752	1	1	1
C	9.647113	1.370419	9.744176	1	1	1
C	10.70209	4.252114	15.924061	1	1	1
C	10.837456	4.392971	7.367982	1	1	1
C	9.782478	1.511276	1.188097	1	1	1
H	9.616451	0.539125	9.32741	1	1	1
H	10.732752	3.42082	16.340828	1	1	1
H	10.868118	5.224265	7.784749	1	1	1
H	9.751816	2.34257	0.771331	1	1	1
C	10.639622	1.611386	10.623741	1	1	1
C	9.709581	4.493081	15.044496	1	1	1
C	9.844947	4.152004	6.488417	1	1	1
C	10.774987	1.270309	2.067662	1	1	1
H	11.286575	0.964815	10.792279	1	1	1
H	9.062628	3.84651	14.875959	1	1	1
H	9.197993	4.798575	6.319879	1	1	1
H	11.421941	1.91688	2.2362	1	1	1
C	10.68349	2.816511	11.261854	1	1	1
C	9.665713	5.698206	14.406384	1	1	1
C	9.801079	2.946879	5.850305	1	1	1
C	10.818856	0.065184	2.705775	1	1	1
C	9.71213	3.705168	11.000209	1	1	1
C	10.637073	0.823473	14.668029	1	1	1
C	10.772438	2.058222	6.11195	1	1	1
C	9.847496	4.939917	2.44413	1	1	1
H	9.706002	4.515097	11.455786	1	1	1
H	10.643201	1.633402	14.212452	1	1	1
H	10.778567	1.248293	5.656373	1	1	1
H	9.841368	4.129988	2.899707	1	1	1
C	8.755023	3.456247	10.100109	1	1	1
C	11.59418	0.574552	15.568128	1	1	1
C	11.729546	2.307143	7.012049	1	1	1
C	8.890388	5.188838	1.54403	1	1	1
H	8.114191	4.106848	9.922451	1	1	1
H	12.235012	1.225153	15.745787	1	1	1
H	12.370378	1.656542	7.189708	1	1	1
H	8.249557	4.538237	1.366372	1	1	1
C	12.294116	4.102323	12.179237	1	1	1
C	8.055087	1.220628	13.489001	1	1	1
C	8.190453	1.661067	4.932922	1	1	1
C	12.429482	4.542762	3.623157	1	1	1
H	12.01635	4.761811	11.584829	1	1	1
H	8.332853	1.880116	14.083409	1	1	1
H	8.468219	1.001579	5.52733	1	1	1
H	12.151715	3.883274	3.028749	1	1	1
C	13.36573	4.383	13.05709	1	1	1
C	6.983473	1.501305	12.611147	1	1	1
C	7.118839	1.38039	4.055068	1	1	1
C	13.501095	4.262085	4.501011	1	1	1
C	13.759936	3.503507	13.984569	1	1	1
C	6.589268	0.621812	11.683668	1	1	1
C	6.724633	2.259883	3.127589	1	1	1
C	13.895301	5.141578	5.42849	1	1	1
H	13.315944	2.68842	14.053702	1	1	1
H	7.033259	5.570115	11.614535	1	1	1
H	7.168624	3.07497	3.058456	1	1	1
H	13.45131	0.193275	5.497623	1	1	1
C	14.784723	3.767597	14.817931	1	1	1
C	5.56448	0.885902	10.850306	1	1	1
C	5.699845	1.995793	2.294227	1	1	1
C	14.920089	4.877488	6.261852	1	1	1
H	15.0486	3.14556	15.455924	1	1	1
H	5.300603	0.263865	10.212314	1	1	1
H	5.435969	2.61783	1.656234	1	1	1
H	15.183965	5.499525	6.899845	1	1	1
C	15.411191	4.933548	14.708414	1	1	1
C	4.938013	2.051853	10.959824	1	1	1
C	5.073378	0.829842	2.403745	1	1	1
C	15.546556	3.711537	6.152334	1	1	1
C	15.066416	0.06519	13.805063	1	1	1
C	5.282787	2.946885	11.863175	1	1	1
C	5.418153	5.6982	3.307096	1	1	1
C	15.201781	2.816505	5.248984	1	1	1
H	15.526998	0.870157	13.740704	1	1	1
H	4.822205	3.751852	11.927534	1	1	1
H	4.957571	4.893233	3.371455	1	1	1
H	15.662364	2.011538	5.184625	1	1	1
C	14.031488	5.561037	12.969818	1	1	1
C	6.317716	2.679342	12.698419	1	1	1
C	6.453081	0.202353	4.14234	1	1	1
C	14.166853	3.084048	4.413739	1	1	1
H	13.777398	0.425113	12.331107	1	1	1
H	6.571805	3.306808	13.337131	1	1	1
H	6.70717	5.338277	4.781052	1	1	1
H	13.912764	2.456582	3.775028	1	1	1
C	17.557037	5.509225	15.356639	1	1	1
C	2.792166	2.62753	10.311598	1	1	1
C	2.927532	0.254165	1.755519	1	1	1
C	17.692403	3.13586	6.80056	1	1	1
F	17.300988	1.139532	15.323253	1	1	1
F	3.048215	4.021227	10.344984	1	1	1
F	3.18358	4.623858	1.788905	1	1	1
F	17.436354	1.742163	6.767174	1	1	1
F	18.322634	5.736302	16.290946	1	1	1
F	2.026569	2.854607	9.377292	1	1	1
F	2.161935	0.027088	0.821212	1	1	1
F	18.458	2.908783	7.734867	1	1	1
F	17.993963	4.929427	14.289679	1	1	1
F	2.35524	2.047732	11.378559	1	1	1
F	2.490605	0.833963	2.822479	1	1	1
F	18.129329	3.715658	5.7336	1	1	1
C	17.520664	5.268315	15.426816	1	1	1
C	2.82854	2.38662	10.241422	1	1	1
C	2.963905	0.495075	1.685342	1	1	1
C	17.656029	3.37677	6.870737	1	1	1
F	17.70609	3.874151	15.299639	1	1	1
F	2.643113	0.992456	10.368599	1	1	1
F	2.778478	1.889239	1.81252	1	1	1
F	17.841456	4.770934	6.743559	1	1	1
F	18.310917	5.200883	16.378252	1	1	1
F	2.038287	2.319188	9.289986	1	1	1
F	2.173652	0.562507	0.733906	1	1	1
F	18.446282	3.444202	7.822173	1	1	1
F	18.027843	0.134287	14.404673	1	1	1
F	2.32136	3.015982	11.263565	1	1	1
F	2.456726	5.629103	2.707486	1	1	1
F	18.163209	2.747408	5.848594	1	1	1
C	0.530093	5.742642	6.205057	1	1	1
C	20.089842	2.860947	2.351022	1	1	1
C	19.954476	0.020748	10.907102	1	1	1
C	0.394727	2.902443	14.761136	1	1	1
F	0.182868	4.751339	6.781548	1	1	1
F	20.437066	1.869644	1.774531	1	1	1
F	20.3017	1.012051	10.33061	1	1	1
F	0.047503	3.893746	15.337628	1	1	1
F	20.299338	0.59824	5.583971	1	1	1
F	0.320596	3.479935	2.972108	1	1	1
F	0.185231	5.16515	11.528187	1	1	1
F	20.163973	2.283455	14.14005	1	1	1
F	0.871192	1.127319	7.002295	1	1	1
F	19.748743	4.009014	1.553784	1	1	1
F	19.613377	4.636071	10.109863	1	1	1
F	0.735826	1.754376	15.558375	1	1	1
F	0.060626	4.782461	5.498137	1	1	1
F	20.559309	1.900766	3.057943	1	1	1
F	20.423943	0.980929	11.614022	1	1	1
F	-0.07474	3.862624	14.054216	1	1	1
F	20.566849	0.94462	5.855781	1	1	1
F	0.053085	3.826315	2.700299	1	1	1
F	-0.082281	4.81877	11.256378	1	1	1
F	20.431484	1.937075	14.41186	1	1	1
F	0.558219	0.038615	7.339644	1	1	1
F	20.061715	2.92031	1.216435	1	1	1
F	19.92635	5.724775	9.772514	1	1	1
F	0.422854	2.84308	15.895724	1	1	1

K_POINTS gamma
