&CONTROL
  calculation = 'scf'
  prefix = '4amp33'
  outdir = './outdir'
  pseudo_dir = '/home/cyk/q-e-qe-7.2/pp/'
/
&SYSTEM
  a     =  5.64230e+00
  b     =  1.01765e+01
  c     =  1.74919e+01
  cosab =  1.10721e-01
  cosac =  1.27686e-01
  cosbc =  2.45255e-01
  ibrav = 14
  nat   = 94
  ntyp  = 5
  input_dft = 'pbe'
  vdw_corr = 'DFT-D3'
  dftd3_version = 4
  ecutwfc = 60
  ecutrho = 600
  occupations = 'fixed'
  nbnd = 285 
/
&ELECTRONS
  conv_thr = 1.0E-7
  mixing_mode = 'local-TF'
  mixing_beta = 0.7
  mixing_ndim = 8
  diagonalization = 'david'
  electron_maxstep = 200
/

ATOMIC_SPECIES
  O   16.00  O.pbe-n-rrkjus_psl.1.0.0.UPF
  N   14.00  N.pbe-n-rrkjus_psl.1.0.0.UPF
  C   12.00  C.pbe-n-rrkjus_psl.1.0.0.UPF
  H    1.00  H.pbe-rrkjus_psl.1.0.0.UPF
  F   19.00  F.pbe-n-rrkjus_psl.1.0.0.UPF

ATOMIC_POSITIONS {angstrom}
O             6.6382283843        5.7469125555        5.5641777621
O             2.3642906157        8.4347084445       11.3009372379
N             4.3695425175       10.4298566551        9.1542248601
N             4.6329754825        3.7517633449        7.7108901399
C             2.7003716369        4.7397814724        2.3007746788
C             6.3021473631        9.4418395276       14.5643403212
H             2.3488648380        5.6573985722        2.7688031020
H             6.6536531620        8.5242214278       14.0963108980
C             1.9362040682        4.1764124075        1.2883105103
C             7.0663139318       10.0052075925       15.5768044897
H             1.0212797579        4.6645660845        0.9633648416
H             7.9812382421        9.5170539155       15.9017491584
C             2.3737519491        3.0000051581        0.6608445127
C             6.6287660509       11.1816158419       16.2042694873
C             3.5583061628        2.3818459288        1.0595585311
C             5.4442128372       11.7997750712       15.8055554689
H             3.8854119055        1.4586172537        0.5859194614
H             5.1171060945       12.7230027463       16.2791955386
C             4.3162650544        2.9525028396        2.0774225029
C             4.6862529456       11.2291171604       14.7876924971
H             5.2326973940        2.4692883030        2.4076926935
H             3.7698216060       11.7123326970       14.4574223065
C             3.9108083948        4.1497929181        2.6993431921
C             5.0917096052       10.0318280819       14.1657718079
C             4.7866700005        4.7215307972        3.7055836139
C             4.2158489995        9.4600892028       13.1595313861
H             5.7127515150        4.1783877377        3.9105682745
H             3.2897664850       10.0032322623       12.9545467255
C             4.5681898111        5.8587690550        4.3991822014
C             4.4343281889        8.3228509450       12.4659327986
H             3.6592876532        6.4334414756        4.2501272861
H             5.3432303468        7.7481795244       12.6149877139
C             5.5353050311        6.3039173639        5.4140365529
C             3.4672129689        7.8777026361       11.4510784471
C             5.1441255489        7.4065033849        6.3273908735
C             3.8583924511        6.7751176151       10.5377241265
C             5.9971121630        7.6427278726        7.4212112620
C             3.0054058370        6.5388921274        9.4439037380
H             6.8731582437        7.0101924097        7.5246364248
H             2.1293607563        7.1714285903        9.3404785752
C             5.6989810852        8.6199020835        8.3477060587
C             3.3035379148        5.5617189165        8.5174089413
H             6.3433491401        8.7909782311        9.2094827942
H             2.6591698599        5.3906417689        7.6556322058
C             4.5483433958        9.4114277436        8.2063486015
C             4.4541746042        4.7701932564        8.6587653985
C             3.6879657594        9.1902383431        7.1143687442
C             5.3145522406        4.9913826569        9.7507462558
H             2.8230739577        9.8352650795        6.9594254366
H             6.1794440423        4.3463549205        9.9056885634
C             3.9845951237        8.1839592075        6.1933464133
C             5.0179228763        5.9976607925       10.6717685867
H             3.2972026347        8.0188480998        5.3670607429
H             5.7053153653        6.1627719002       11.4980542571
C             3.1917671713       10.7311397198        9.5688772653
C             5.8107518287        3.4504802802        7.2962377347
H             2.2801026360       10.2050671872        9.2302083189
H             6.7224153640        3.9765528128        7.6349056811
C             2.9773502108       11.7438608176       10.5953618351
C             6.0251687892        2.4377601824        6.2697531649
C             3.9107493966       12.7713199395       10.8102181434
C             5.0917686034        1.4103010605        6.0548958566
H             3.6567187726        2.7214823590       10.1692806618
H             5.3458002274       11.4601376410        6.6958333382
C             2.5526846019        3.6085743257       11.7974803595
C             6.4498343981       10.5730456743        5.0676346405
H             3.2613889087        4.4219394990       11.9425363245
H             5.7411290913        9.7596805010        4.9225786755
C             7.0469751010        3.5102105176       12.5883557504
C             1.9555438990       10.6714094824        4.2767582496
C             7.2500534392       12.5880684335       12.4023243091
C             1.7524645608        1.5935515665        4.4627906909
H             6.3803076789       12.4940642213       13.0476367199
H             2.6222103211        1.6875557787        3.8174782801
C             7.4688525850       11.6609263720       11.3890725238
C             1.5336664150        2.5206936280        5.4760424762
H             6.7579762364       10.8540947759       11.2259526982
H             2.2445417636        3.3275252241        5.6391623018
C             3.8462637540        6.4917876469       16.3688581008
C             5.1562542460        7.6898333531        0.4962558992
C             6.8107175777        4.4950748319       13.6911692026
C             2.1918014223        9.6865451681        3.1739447974
F             2.5764742971        6.9770622745       16.2769361814
F             6.4260437029        7.2045587255        0.5881778186
F             4.4506579823        6.7908104683       15.1771487604
F             4.5518600177        7.3908105317        1.6879652396
F             3.7608415718        5.1338193091       16.4337504687
F             5.2416774282        9.0478016909        0.4313645313
F             5.4865357944        4.6443244402       13.9528785818
F             3.5159822056        9.5372955598        2.9122354182
F             7.3091108000        5.7372519573       13.3950247671
F             1.6934072000        8.4443690427        3.4700892329
F             7.3999367907        4.1094700519       14.8637352276
F             1.6025822093       10.0721499481        2.0013787724

K_POINTS gamma
