&DOS
    prefix='4amp33'
    outdir='./outdir/'
    fildos='4amp33.dos.dat'
    emin=-26.0813
    emax=5.4301
/
