&INPUTPP
  prefix = '4amp33'
  outdir = './outdir'
  filplot = '4amp33_lumo.dat'
  plot_num = 7
  kpoint = 1
  kband = 165
  lsign = .TRUE.
/
&PLOT
  nfile = 1
  filepp(1) = '4amp33_lumo.dat'
  weight(1) = 1
  output_format = 6
  fileout = '4amp33_lumo.cub'
  iflag = 3
/
